c swarm250_25_a: generated by swarm-gen (never published)
c construction: 25 hidden classes, flat edges p=0.506 between classes, planted 25-clique
c known: lower=25 upper=25
p edge 250 15320
e 1 2
e 1 5
e 1 6
e 1 8
e 1 9
e 1 10
e 1 14
e 1 17
e 1 18
e 1 19
e 1 20
e 1 21
e 1 22
e 1 24
e 1 28
e 1 36
e 1 38
e 1 39
e 1 40
e 1 46
e 1 51
e 1 52
e 1 54
e 1 55
e 1 56
e 1 60
e 1 63
e 1 64
e 1 65
e 1 69
e 1 70
e 1 72
e 1 75
e 1 77
e 1 79
e 1 82
e 1 85
e 1 86
e 1 87
e 1 88
e 1 89
e 1 93
e 1 94
e 1 95
e 1 99
e 1 101
e 1 103
e 1 104
e 1 109
e 1 111
e 1 112
e 1 114
e 1 116
e 1 117
e 1 119
e 1 120
e 1 122
e 1 123
e 1 132
e 1 138
e 1 139
e 1 142
e 1 143
e 1 149
e 1 152
e 1 158
e 1 159
e 1 161
e 1 163
e 1 165
e 1 166
e 1 167
e 1 171
e 1 173
e 1 176
e 1 177
e 1 178
e 1 179
e 1 180
e 1 183
e 1 184
e 1 185
e 1 186
e 1 187
e 1 188
e 1 190
e 1 191
e 1 194
e 1 196
e 1 197
e 1 198
e 1 204
e 1 206
e 1 208
e 1 209
e 1 218
e 1 225
e 1 227
e 1 228
e 1 231
e 1 232
e 1 234
e 1 235
e 1 236
e 1 241
e 1 242
e 1 245
e 1 246
e 1 248
e 1 250
e 2 3
e 2 5
e 2 7
e 2 10
e 2 11
e 2 12
e 2 14
e 2 16
e 2 17
e 2 19
e 2 20
e 2 24
e 2 28
e 2 29
e 2 31
e 2 33
e 2 35
e 2 36
e 2 38
e 2 39
e 2 43
e 2 47
e 2 48
e 2 50
e 2 51
e 2 55
e 2 56
e 2 58
e 2 59
e 2 60
e 2 62
e 2 64
e 2 67
e 2 72
e 2 78
e 2 79
e 2 80
e 2 82
e 2 83
e 2 84
e 2 86
e 2 88
e 2 91
e 2 95
e 2 100
e 2 103
e 2 106
e 2 109
e 2 111
e 2 113
e 2 115
e 2 116
e 2 117
e 2 119
e 2 121
e 2 123
e 2 126
e 2 127
e 2 130
e 2 132
e 2 141
e 2 147
e 2 148
e 2 149
e 2 150
e 2 151
e 2 152
e 2 153
e 2 157
e 2 158
e 2 159
e 2 161
e 2 164
e 2 166
e 2 167
e 2 168
e 2 169
e 2 170
e 2 172
e 2 173
e 2 174
e 2 177
e 2 178
e 2 181
e 2 183
e 2 184
e 2 188
e 2 191
e 2 192
e 2 193
e 2 194
e 2 197
e 2 198
e 2 199
e 2 200
e 2 201
e 2 206
e 2 207
e 2 213
e 2 214
e 2 216
e 2 218
e 2 221
e 2 228
e 2 229
e 2 231
e 2 233
e 2 236
e 2 240
e 2 243
e 2 244
e 2 245
e 2 247
e 2 249
e 3 4
e 3 5
e 3 11
e 3 13
e 3 15
e 3 18
e 3 19
e 3 21
e 3 31
e 3 32
e 3 35
e 3 36
e 3 41
e 3 43
e 3 46
e 3 47
e 3 50
e 3 51
e 3 52
e 3 55
e 3 58
e 3 60
e 3 63
e 3 66
e 3 67
e 3 71
e 3 72
e 3 73
e 3 74
e 3 75
e 3 76
e 3 77
e 3 78
e 3 79
e 3 82
e 3 83
e 3 85
e 3 87
e 3 88
e 3 89
e 3 92
e 3 94
e 3 97
e 3 102
e 3 105
e 3 107
e 3 108
e 3 112
e 3 115
e 3 117
e 3 121
e 3 122
e 3 123
e 3 124
e 3 125
e 3 126
e 3 127
e 3 128
e 3 129
e 3 131
e 3 138
e 3 142
e 3 143
e 3 144
e 3 145
e 3 149
e 3 154
e 3 155
e 3 159
e 3 160
e 3 161
e 3 162
e 3 165
e 3 166
e 3 170
e 3 174
e 3 176
e 3 177
e 3 178
e 3 184
e 3 185
e 3 189
e 3 190
e 3 192
e 3 196
e 3 197
e 3 202
e 3 204
e 3 205
e 3 206
e 3 208
e 3 209
e 3 211
e 3 212
e 3 213
e 3 216
e 3 217
e 3 218
e 3 221
e 3 223
e 3 227
e 3 230
e 3 231
e 3 232
e 3 234
e 3 239
e 3 241
e 3 246
e 3 247
e 3 250
e 4 5
e 4 6
e 4 7
e 4 9
e 4 10
e 4 12
e 4 13
e 4 15
e 4 16
e 4 19
e 4 20
e 4 22
e 4 23
e 4 24
e 4 25
e 4 26
e 4 27
e 4 28
e 4 29
e 4 32
e 4 33
e 4 34
e 4 35
e 4 36
e 4 37
e 4 38
e 4 39
e 4 40
e 4 41
e 4 44
e 4 46
e 4 49
e 4 51
e 4 52
e 4 53
e 4 54
e 4 55
e 4 58
e 4 59
e 4 60
e 4 63
e 4 65
e 4 66
e 4 67
e 4 71
e 4 72
e 4 73
e 4 81
e 4 82
e 4 84
e 4 85
e 4 86
e 4 88
e 4 92
e 4 94
e 4 95
e 4 99
e 4 101
e 4 103
e 4 104
e 4 107
e 4 108
e 4 111
e 4 120
e 4 121
e 4 123
e 4 124
e 4 125
e 4 126
e 4 127
e 4 128
e 4 129
e 4 131
e 4 133
e 4 135
e 4 136
e 4 137
e 4 141
e 4 142
e 4 146
e 4 147
e 4 149
e 4 153
e 4 154
e 4 160
e 4 162
e 4 166
e 4 167
e 4 168
e 4 170
e 4 176
e 4 177
e 4 178
e 4 180
e 4 182
e 4 184
e 4 185
e 4 186
e 4 188
e 4 189
e 4 190
e 4 191
e 4 194
e 4 197
e 4 198
e 4 199
e 4 200
e 4 203
e 4 204
e 4 205
e 4 207
e 4 212
e 4 213
e 4 214
e 4 216
e 4 217
e 4 218
e 4 219
e 4 222
e 4 223
e 4 224
e 4 225
e 4 226
e 4 227
e 4 229
e 4 230
e 4 232
e 4 235
e 4 236
e 4 237
e 4 238
e 4 240
e 4 241
e 4 242
e 4 243
e 4 246
e 4 249
e 5 6
e 5 7
e 5 8
e 5 9
e 5 11
e 5 13
e 5 16
e 5 19
e 5 22
e 5 23
e 5 24
e 5 25
e 5 32
e 5 33
e 5 34
e 5 36
e 5 39
e 5 41
e 5 43
e 5 44
e 5 56
e 5 59
e 5 60
e 5 61
e 5 63
e 5 64
e 5 66
e 5 69
e 5 70
e 5 71
e 5 75
e 5 76
e 5 81
e 5 82
e 5 83
e 5 84
e 5 85
e 5 86
e 5 87
e 5 90
e 5 95
e 5 97
e 5 98
e 5 99
e 5 100
e 5 101
e 5 104
e 5 106
e 5 107
e 5 108
e 5 110
e 5 114
e 5 116
e 5 118
e 5 119
e 5 120
e 5 123
e 5 124
e 5 125
e 5 129
e 5 132
e 5 133
e 5 134
e 5 136
e 5 137
e 5 143
e 5 144
e 5 147
e 5 148
e 5 149
e 5 151
e 5 152
e 5 155
e 5 157
e 5 159
e 5 160
e 5 163
e 5 164
e 5 166
e 5 167
e 5 168
e 5 171
e 5 172
e 5 174
e 5 176
e 5 177
e 5 179
e 5 180
e 5 181
e 5 185
e 5 186
e 5 188
e 5 193
e 5 194
e 5 195
e 5 196
e 5 197
e 5 198
e 5 199
e 5 200
e 5 202
e 5 203
e 5 205
e 5 210
e 5 211
e 5 212
e 5 213
e 5 214
e 5 216
e 5 217
e 5 218
e 5 222
e 5 224
e 5 226
e 5 228
e 5 229
e 5 230
e 5 231
e 5 232
e 5 234
e 5 235
e 5 237
e 5 238
e 5 240
e 5 241
e 5 242
e 5 244
e 5 248
e 5 250
e 6 7
e 6 8
e 6 9
e 6 10
e 6 11
e 6 13
e 6 16
e 6 17
e 6 18
e 6 19
e 6 24
e 6 25
e 6 27
e 6 28
e 6 31
e 6 37
e 6 38
e 6 44
e 6 45
e 6 49
e 6 50
e 6 51
e 6 52
e 6 53
e 6 58
e 6 59
e 6 60
e 6 62
e 6 64
e 6 68
e 6 70
e 6 73
e 6 75
e 6 76
e 6 79
e 6 83
e 6 85
e 6 86
e 6 87
e 6 89
e 6 91
e 6 92
e 6 94
e 6 95
e 6 96
e 6 104
e 6 105
e 6 107
e 6 109
e 6 110
e 6 111
e 6 114
e 6 116
e 6 118
e 6 123
e 6 124
e 6 125
e 6 126
e 6 127
e 6 132
e 6 135
e 6 137
e 6 139
e 6 141
e 6 142
e 6 143
e 6 144
e 6 147
e 6 150
e 6 153
e 6 154
e 6 158
e 6 161
e 6 163
e 6 167
e 6 168
e 6 169
e 6 171
e 6 172
e 6 175
e 6 176
e 6 177
e 6 178
e 6 179
e 6 182
e 6 185
e 6 186
e 6 188
e 6 190
e 6 191
e 6 192
e 6 193
e 6 194
e 6 195
e 6 199
e 6 202
e 6 205
e 6 206
e 6 208
e 6 211
e 6 212
e 6 214
e 6 216
e 6 217
e 6 218
e 6 220
e 6 224
e 6 225
e 6 230
e 6 232
e 6 233
e 6 234
e 6 235
e 6 238
e 6 239
e 6 241
e 6 242
e 6 243
e 6 244
e 6 249
e 7 10
e 7 12
e 7 13
e 7 14
e 7 16
e 7 19
e 7 20
e 7 23
e 7 24
e 7 28
e 7 29
e 7 31
e 7 32
e 7 33
e 7 35
e 7 36
e 7 39
e 7 40
e 7 48
e 7 51
e 7 53
e 7 57
e 7 59
e 7 62
e 7 63
e 7 66
e 7 67
e 7 68
e 7 69
e 7 72
e 7 75
e 7 76
e 7 81
e 7 82
e 7 89
e 7 93
e 7 94
e 7 95
e 7 96
e 7 98
e 7 99
e 7 100
e 7 102
e 7 103
e 7 104
e 7 107
e 7 108
e 7 109
e 7 111
e 7 113
e 7 117
e 7 118
e 7 119
e 7 120
e 7 121
e 7 127
e 7 132
e 7 135
e 7 136
e 7 139
e 7 140
e 7 141
e 7 147
e 7 150
e 7 151
e 7 154
e 7 158
e 7 159
e 7 160
e 7 163
e 7 165
e 7 166
e 7 167
e 7 171
e 7 172
e 7 173
e 7 174
e 7 176
e 7 177
e 7 180
e 7 182
e 7 193
e 7 195
e 7 197
e 7 199
e 7 201
e 7 202
e 7 204
e 7 206
e 7 207
e 7 208
e 7 209
e 7 216
e 7 217
e 7 218
e 7 219
e 7 220
e 7 222
e 7 223
e 7 224
e 7 225
e 7 231
e 7 234
e 7 239
e 7 241
e 7 244
e 7 245
e 7 246
e 7 248
e 7 250
e 8 10
e 8 11
e 8 13
e 8 15
e 8 16
e 8 17
e 8 19
e 8 22
e 8 23
e 8 26
e 8 29
e 8 31
e 8 32
e 8 33
e 8 34
e 8 37
e 8 38
e 8 39
e 8 43
e 8 44
e 8 46
e 8 48
e 8 51
e 8 52
e 8 53
e 8 54
e 8 58
e 8 60
e 8 64
e 8 65
e 8 66
e 8 69
e 8 71
e 8 72
e 8 76
e 8 80
e 8 81
e 8 82
e 8 83
e 8 84
e 8 88
e 8 90
e 8 92
e 8 94
e 8 96
e 8 103
e 8 104
e 8 107
e 8 108
e 8 110
e 8 111
e 8 112
e 8 113
e 8 114
e 8 115
e 8 118
e 8 119
e 8 120
e 8 124
e 8 127
e 8 128
e 8 129
e 8 130
e 8 131
e 8 135
e 8 136
e 8 138
e 8 141
e 8 146
e 8 147
e 8 148
e 8 150
e 8 151
e 8 153
e 8 154
e 8 155
e 8 156
e 8 158
e 8 159
e 8 160
e 8 161
e 8 162
e 8 164
e 8 169
e 8 171
e 8 175
e 8 176
e 8 177
e 8 182
e 8 183
e 8 184
e 8 186
e 8 187
e 8 191
e 8 192
e 8 193
e 8 195
e 8 196
e 8 197
e 8 201
e 8 209
e 8 210
e 8 217
e 8 218
e 8 225
e 8 226
e 8 230
e 8 232
e 8 233
e 8 235
e 8 236
e 8 238
e 8 239
e 8 240
e 8 242
e 8 244
e 8 246
e 8 247
e 8 250
e 9 12
e 9 13
e 9 15
e 9 21
e 9 22
e 9 28
e 9 29
e 9 32
e 9 34
e 9 36
e 9 37
e 9 39
e 9 41
e 9 42
e 9 43
e 9 45
e 9 53
e 9 55
e 9 56
e 9 60
e 9 61
e 9 62
e 9 65
e 9 67
e 9 69
e 9 74
e 9 76
e 9 80
e 9 82
e 9 84
e 9 86
e 9 94
e 9 95
e 9 96
e 9 97
e 9 101
e 9 103
e 9 104
e 9 105
e 9 107
e 9 108
e 9 109
e 9 111
e 9 112
e 9 115
e 9 118
e 9 119
e 9 120
e 9 121
e 9 124
e 9 128
e 9 129
e 9 134
e 9 135
e 9 137
e 9 138
e 9 141
e 9 142
e 9 143
e 9 144
e 9 145
e 9 146
e 9 147
e 9 148
e 9 153
e 9 155
e 9 156
e 9 157
e 9 158
e 9 159
e 9 162
e 9 163
e 9 166
e 9 170
e 9 172
e 9 176
e 9 178
e 9 181
e 9 182
e 9 183
e 9 194
e 9 195
e 9 201
e 9 202
e 9 203
e 9 204
e 9 208
e 9 210
e 9 212
e 9 213
e 9 216
e 9 217
e 9 220
e 9 221
e 9 222
e 9 224
e 9 225
e 9 228
e 9 230
e 9 232
e 9 233
e 9 236
e 9 238
e 9 240
e 9 243
e 9 244
e 9 245
e 9 247
e 9 249
e 10 12
e 10 13
e 10 14
e 10 17
e 10 18
e 10 21
e 10 22
e 10 27
e 10 29
e 10 32
e 10 33
e 10 37
e 10 40
e 10 41
e 10 42
e 10 44
e 10 47
e 10 54
e 10 55
e 10 57
e 10 60
e 10 62
e 10 63
e 10 65
e 10 67
e 10 70
e 10 71
e 10 72
e 10 73
e 10 76
e 10 80
e 10 81
e 10 82
e 10 87
e 10 88
e 10 91
e 10 92
e 10 94
e 10 95
e 10 96
e 10 97
e 10 98
e 10 99
e 10 102
e 10 103
e 10 104
e 10 105
e 10 106
e 10 107
e 10 109
e 10 111
e 10 112
e 10 114
e 10 116
e 10 117
e 10 120
e 10 121
e 10 123
e 10 124
e 10 131
e 10 134
e 10 135
e 10 140
e 10 142
e 10 143
e 10 144
e 10 146
e 10 152
e 10 155
e 10 157
e 10 159
e 10 164
e 10 166
e 10 168
e 10 170
e 10 173
e 10 174
e 10 176
e 10 177
e 10 179
e 10 180
e 10 185
e 10 186
e 10 187
e 10 188
e 10 191
e 10 193
e 10 194
e 10 198
e 10 200
e 10 201
e 10 204
e 10 206
e 10 207
e 10 208
e 10 215
e 10 216
e 10 222
e 10 223
e 10 224
e 10 228
e 10 229
e 10 231
e 10 232
e 10 234
e 10 236
e 10 238
e 10 239
e 10 240
e 10 243
e 10 246
e 10 248
e 10 249
e 10 250
e 11 19
e 11 21
e 11 23
e 11 24
e 11 27
e 11 29
e 11 31
e 11 32
e 11 33
e 11 36
e 11 40
e 11 41
e 11 43
e 11 45
e 11 49
e 11 50
e 11 52
e 11 54
e 11 55
e 11 56
e 11 61
e 11 62
e 11 63
e 11 64
e 11 65
e 11 67
e 11 68
e 11 70
e 11 71
e 11 75
e 11 77
e 11 80
e 11 81
e 11 82
e 11 83
e 11 87
e 11 89
e 11 92
e 11 93
e 11 94
e 11 95
e 11 97
e 11 100
e 11 101
e 11 106
e 11 107
e 11 109
e 11 112
e 11 113
e 11 116
e 11 117
e 11 118
e 11 120
e 11 121
e 11 123
e 11 125
e 11 126
e 11 128
e 11 129
e 11 136
e 11 138
e 11 139
e 11 142
e 11 143
e 11 144
e 11 145
e 11 146
e 11 147
e 11 148
e 11 149
e 11 150
e 11 152
e 11 153
e 11 155
e 11 157
e 11 158
e 11 159
e 11 160
e 11 161
e 11 168
e 11 169
e 11 171
e 11 172
e 11 174
e 11 176
e 11 177
e 11 178
e 11 180
e 11 183
e 11 185
e 11 186
e 11 187
e 11 189
e 11 191
e 11 192
e 11 193
e 11 197
e 11 198
e 11 199
e 11 203
e 11 204
e 11 205
e 11 206
e 11 208
e 11 209
e 11 211
e 11 212
e 11 218
e 11 220
e 11 222
e 11 227
e 11 228
e 11 231
e 11 232
e 11 236
e 11 238
e 11 239
e 11 240
e 11 242
e 11 243
e 11 244
e 11 245
e 11 246
e 11 247
e 11 248
e 11 249
e 11 250
e 12 13
e 12 14
e 12 15
e 12 16
e 12 18
e 12 21
e 12 22
e 12 27
e 12 29
e 12 31
e 12 34
e 12 37
e 12 38
e 12 39
e 12 46
e 12 47
e 12 50
e 12 51
e 12 53
e 12 56
e 12 57
e 12 58
e 12 59
e 12 60
e 12 61
e 12 63
e 12 64
e 12 65
e 12 66
e 12 67
e 12 69
e 12 74
e 12 78
e 12 82
e 12 84
e 12 86
e 12 88
e 12 90
e 12 92
e 12 93
e 12 94
e 12 95
e 12 98
e 12 101
e 12 110
e 12 111
e 12 112
e 12 115
e 12 116
e 12 119
e 12 120
e 12 121
e 12 123
e 12 124
e 12 126
e 12 127
e 12 129
e 12 134
e 12 136
e 12 138
e 12 139
e 12 140
e 12 141
e 12 142
e 12 143
e 12 149
e 12 150
e 12 151
e 12 152
e 12 153
e 12 154
e 12 164
e 12 165
e 12 166
e 12 168
e 12 172
e 12 174
e 12 175
e 12 176
e 12 178
e 12 179
e 12 185
e 12 186
e 12 189
e 12 190
e 12 191
e 12 193
e 12 195
e 12 197
e 12 198
e 12 200
e 12 201
e 12 203
e 12 204
e 12 205
e 12 208
e 12 212
e 12 214
e 12 215
e 12 216
e 12 218
e 12 221
e 12 224
e 12 226
e 12 228
e 12 229
e 12 230
e 12 232
e 12 233
e 12 236
e 12 237
e 12 239
e 12 241
e 12 242
e 12 246
e 12 250
e 13 14
e 13 17
e 13 19
e 13 24
e 13 25
e 13 26
e 13 27
e 13 32
e 13 33
e 13 34
e 13 36
e 13 37
e 13 39
e 13 40
e 13 41
e 13 42
e 13 44
e 13 46
e 13 47
e 13 48
e 13 49
e 13 50
e 13 52
e 13 58
e 13 64
e 13 65
e 13 67
e 13 73
e 13 75
e 13 77
e 13 79
e 13 82
e 13 88
e 13 89
e 13 90
e 13 93
e 13 94
e 13 95
e 13 96
e 13 98
e 13 99
e 13 101
e 13 102
e 13 104
e 13 106
e 13 108
e 13 110
e 13 111
e 13 113
e 13 117
e 13 119
e 13 120
e 13 125
e 13 127
e 13 128
e 13 130
e 13 132
e 13 133
e 13 136
e 13 137
e 13 138
e 13 140
e 13 141
e 13 146
e 13 147
e 13 149
e 13 153
e 13 154
e 13 155
e 13 157
e 13 160
e 13 161
e 13 164
e 13 166
e 13 171
e 13 173
e 13 174
e 13 176
e 13 177
e 13 179
e 13 180
e 13 183
e 13 185
e 13 186
e 13 187
e 13 188
e 13 189
e 13 192
e 13 194
e 13 196
e 13 198
e 13 199
e 13 200
e 13 201
e 13 202
e 13 203
e 13 204
e 13 206
e 13 207
e 13 208
e 13 212
e 13 213
e 13 215
e 13 216
e 13 219
e 13 222
e 13 225
e 13 226
e 13 228
e 13 229
e 13 230
e 13 231
e 13 232
e 13 233
e 13 237
e 13 238
e 13 239
e 13 240
e 13 243
e 13 244
e 13 247
e 13 250
e 14 18
e 14 21
e 14 24
e 14 25
e 14 28
e 14 30
e 14 31
e 14 32
e 14 36
e 14 38
e 14 44
e 14 46
e 14 49
e 14 53
e 14 55
e 14 63
e 14 65
e 14 67
e 14 70
e 14 71
e 14 72
e 14 74
e 14 75
e 14 78
e 14 79
e 14 82
e 14 84
e 14 85
e 14 86
e 14 87
e 14 88
e 14 91
e 14 92
e 14 93
e 14 96
e 14 99
e 14 101
e 14 104
e 14 107
e 14 111
e 14 114
e 14 115
e 14 116
e 14 117
e 14 119
e 14 121
e 14 122
e 14 123
e 14 124
e 14 125
e 14 126
e 14 127
e 14 131
e 14 135
e 14 138
e 14 140
e 14 141
e 14 142
e 14 143
e 14 147
e 14 151
e 14 152
e 14 153
e 14 154
e 14 155
e 14 163
e 14 165
e 14 166
e 14 167
e 14 169
e 14 170
e 14 173
e 14 175
e 14 177
e 14 180
e 14 181
e 14 182
e 14 183
e 14 184
e 14 186
e 14 188
e 14 190
e 14 191
e 14 195
e 14 196
e 14 197
e 14 198
e 14 207
e 14 208
e 14 213
e 14 218
e 14 219
e 14 220
e 14 222
e 14 224
e 14 225
e 14 231
e 14 234
e 14 237
e 14 238
e 14 243
e 14 246
e 14 250
e 15 17
e 15 18
e 15 23
e 15 24
e 15 26
e 15 28
e 15 29
e 15 31
e 15 32
e 15 33
e 15 34
e 15 35
e 15 37
e 15 38
e 15 39
e 15 44
e 15 45
e 15 47
e 15 48
e 15 49
e 15 50
e 15 51
e 15 53
e 15 55
e 15 56
e 15 65
e 15 68
e 15 72
e 15 73
e 15 77
e 15 79
e 15 81
e 15 86
e 15 88
e 15 91
e 15 94
e 15 95
e 15 104
e 15 105
e 15 107
e 15 108
e 15 109
e 15 112
e 15 117
e 15 120
e 15 122
e 15 126
e 15 128
e 15 129
e 15 133
e 15 134
e 15 137
e 15 138
e 15 141
e 15 142
e 15 143
e 15 144
e 15 146
e 15 148
e 15 150
e 15 153
e 15 154
e 15 155
e 15 157
e 15 159
e 15 161
e 15 162
e 15 163
e 15 164
e 15 167
e 15 168
e 15 170
e 15 172
e 15 173
e 15 176
e 15 177
e 15 178
e 15 179
e 15 180
e 15 181
e 15 183
e 15 185
e 15 187
e 15 188
e 15 190
e 15 196
e 15 197
e 15 198
e 15 204
e 15 205
e 15 206
e 15 208
e 15 211
e 15 213
e 15 216
e 15 217
e 15 218
e 15 219
e 15 220
e 15 227
e 15 228
e 15 233
e 15 234
e 15 235
e 15 239
e 15 242
e 15 243
e 15 246
e 15 249
e 16 17
e 16 18
e 16 19
e 16 26
e 16 29
e 16 31
e 16 32
e 16 33
e 16 34
e 16 36
e 16 38
e 16 41
e 16 44
e 16 45
e 16 46
e 16 47
e 16 49
e 16 50
e 16 51
e 16 52
e 16 53
e 16 54
e 16 56
e 16 59
e 16 60
e 16 61
e 16 66
e 16 69
e 16 71
e 16 72
e 16 74
e 16 77
e 16 79
e 16 80
e 16 82
e 16 85
e 16 86
e 16 90
e 16 91
e 16 92
e 16 94
e 16 95
e 16 97
e 16 98
e 16 99
e 16 100
e 16 102
e 16 104
e 16 105
e 16 106
e 16 108
e 16 113
e 16 114
e 16 115
e 16 120
e 16 122
e 16 124
e 16 125
e 16 127
e 16 129
e 16 130
e 16 132
e 16 134
e 16 135
e 16 139
e 16 143
e 16 144
e 16 147
e 16 155
e 16 156
e 16 157
e 16 158
e 16 161
e 16 162
e 16 163
e 16 164
e 16 166
e 16 167
e 16 168
e 16 171
e 16 173
e 16 174
e 16 180
e 16 181
e 16 182
e 16 183
e 16 185
e 16 186
e 16 187
e 16 190
e 16 192
e 16 193
e 16 197
e 16 200
e 16 201
e 16 202
e 16 203
e 16 206
e 16 207
e 16 208
e 16 209
e 16 211
e 16 214
e 16 217
e 16 218
e 16 227
e 16 229
e 16 231
e 16 232
e 16 235
e 16 236
e 16 237
e 16 239
e 16 240
e 16 242
e 16 248
e 16 249
e 17 18
e 17 19
e 17 20
e 17 28
e 17 29
e 17 36
e 17 40
e 17 42
e 17 43
e 17 44
e 17 45
e 17 47
e 17 51
e 17 52
e 17 53
e 17 54
e 17 55
e 17 56
e 17 57
e 17 59
e 17 60
e 17 61
e 17 62
e 17 66
e 17 67
e 17 69
e 17 72
e 17 73
e 17 74
e 17 77
e 17 78
e 17 80
e 17 81
e 17 82
e 17 84
e 17 90
e 17 91
e 17 93
e 17 94
e 17 95
e 17 100
e 17 102
e 17 104
e 17 105
e 17 106
e 17 108
e 17 111
e 17 112
e 17 113
e 17 118
e 17 120
e 17 121
e 17 124
e 17 126
e 17 128
e 17 129
e 17 134
e 17 135
e 17 137
e 17 138
e 17 139
e 17 142
e 17 149
e 17 150
e 17 152
e 17 154
e 17 160
e 17 165
e 17 167
e 17 168
e 17 169
e 17 170
e 17 171
e 17 172
e 17 173
e 17 174
e 17 177
e 17 179
e 17 180
e 17 181
e 17 182
e 17 183
e 17 188
e 17 189
e 17 192
e 17 193
e 17 195
e 17 197
e 17 198
e 17 199
e 17 201
e 17 207
e 17 211
e 17 212
e 17 218
e 17 219
e 17 221
e 17 223
e 17 224
e 17 225
e 17 226
e 17 228
e 17 231
e 17 233
e 17 234
e 17 236
e 17 241
e 17 243
e 17 245
e 17 248
e 17 249
e 17 250
e 18 21
e 18 22
e 18 24
e 18 25
e 18 28
e 18 29
e 18 31
e 18 32
e 18 33
e 18 38
e 18 39
e 18 42
e 18 45
e 18 46
e 18 52
e 18 53
e 18 54
e 18 55
e 18 56
e 18 57
e 18 58
e 18 61
e 18 62
e 18 63
e 18 65
e 18 67
e 18 71
e 18 73
e 18 75
e 18 79
e 18 81
e 18 82
e 18 83
e 18 85
e 18 88
e 18 89
e 18 90
e 18 91
e 18 92
e 18 94
e 18 95
e 18 96
e 18 97
e 18 100
e 18 103
e 18 104
e 18 105
e 18 107
e 18 108
e 18 109
e 18 111
e 18 112
e 18 113
e 18 115
e 18 116
e 18 118
e 18 119
e 18 120
e 18 121
e 18 127
e 18 129
e 18 132
e 18 136
e 18 139
e 18 141
e 18 143
e 18 144
e 18 145
e 18 147
e 18 149
e 18 150
e 18 151
e 18 154
e 18 155
e 18 158
e 18 161
e 18 163
e 18 164
e 18 165
e 18 166
e 18 168
e 18 172
e 18 174
e 18 176
e 18 178
e 18 179
e 18 180
e 18 181
e 18 184
e 18 185
e 18 186
e 18 187
e 18 188
e 18 189
e 18 190
e 18 191
e 18 193
e 18 196
e 18 197
e 18 198
e 18 201
e 18 202
e 18 204
e 18 205
e 18 209
e 18 210
e 18 212
e 18 214
e 18 216
e 18 219
e 18 221
e 18 223
e 18 225
e 18 226
e 18 229
e 18 230
e 18 231
e 18 232
e 18 233
e 18 234
e 18 237
e 18 238
e 18 239
e 18 240
e 18 241
e 18 242
e 18 243
e 18 244
e 19 20
e 19 21
e 19 25
e 19 27
e 19 29
e 19 38
e 19 41
e 19 42
e 19 43
e 19 45
e 19 46
e 19 47
e 19 50
e 19 51
e 19 58
e 19 59
e 19 63
e 19 64
e 19 65
e 19 67
e 19 69
e 19 71
e 19 73
e 19 75
e 19 80
e 19 81
e 19 83
e 19 86
e 19 88
e 19 90
e 19 93
e 19 97
e 19 100
e 19 102
e 19 105
e 19 106
e 19 107
e 19 108
e 19 109
e 19 111
e 19 112
e 19 115
e 19 117
e 19 119
e 19 120
e 19 121
e 19 124
e 19 126
e 19 127
e 19 128
e 19 130
e 19 133
e 19 135
e 19 136
e 19 137
e 19 138
e 19 139
e 19 140
e 19 141
e 19 142
e 19 143
e 19 146
e 19 147
e 19 151
e 19 152
e 19 153
e 19 154
e 19 157
e 19 159
e 19 160
e 19 161
e 19 163
e 19 164
e 19 165
e 19 166
e 19 169
e 19 170
e 19 178
e 19 179
e 19 181
e 19 182
e 19 183
e 19 189
e 19 191
e 19 192
e 19 193
e 19 195
e 19 196
e 19 199
e 19 200
e 19 201
e 19 203
e 19 205
e 19 207
e 19 210
e 19 211
e 19 212
e 19 215
e 19 217
e 19 218
e 19 219
e 19 220
e 19 223
e 19 224
e 19 225
e 19 230
e 19 231
e 19 234
e 19 235
e 19 236
e 19 239
e 19 241
e 19 243
e 19 245
e 19 247
e 19 248
e 20 25
e 20 30
e 20 32
e 20 33
e 20 35
e 20 38
e 20 40
e 20 43
e 20 44
e 20 48
e 20 49
e 20 52
e 20 53
e 20 56
e 20 57
e 20 58
e 20 59
e 20 61
e 20 62
e 20 63
e 20 68
e 20 71
e 20 72
e 20 73
e 20 78
e 20 80
e 20 84
e 20 85
e 20 86
e 20 90
e 20 91
e 20 92
e 20 93
e 20 95
e 20 96
e 20 101
e 20 102
e 20 103
e 20 110
e 20 113
e 20 114
e 20 115
e 20 116
e 20 118
e 20 122
e 20 123
e 20 124
e 20 128
e 20 130
e 20 131
e 20 135
e 20 136
e 20 141
e 20 143
e 20 144
e 20 150
e 20 151
e 20 152
e 20 153
e 20 155
e 20 156
e 20 157
e 20 158
e 20 162
e 20 167
e 20 170
e 20 172
e 20 174
e 20 175
e 20 176
e 20 178
e 20 179
e 20 181
e 20 182
e 20 192
e 20 193
e 20 196
e 20 198
e 20 199
e 20 207
e 20 211
e 20 212
e 20 215
e 20 218
e 20 221
e 20 222
e 20 223
e 20 224
e 20 226
e 20 231
e 20 232
e 20 233
e 20 234
e 20 236
e 20 240
e 20 241
e 20 243
e 20 245
e 20 248
e 20 250
e 21 22
e 21 23
e 21 24
e 21 29
e 21 34
e 21 38
e 21 39
e 21 40
e 21 41
e 21 42
e 21 44
e 21 49
e 21 52
e 21 54
e 21 55
e 21 58
e 21 59
e 21 62
e 21 63
e 21 64
e 21 66
e 21 67
e 21 75
e 21 76
e 21 78
e 21 81
e 21 85
e 21 86
e 21 87
e 21 92
e 21 93
e 21 94
e 21 96
e 21 98
e 21 100
e 21 101
e 21 102
e 21 103
e 21 108
e 21 113
e 21 116
e 21 117
e 21 121
e 21 122
e 21 124
e 21 125
e 21 127
e 21 128
e 21 130
e 21 131
e 21 132
e 21 137
e 21 142
e 21 148
e 21 150
e 21 151
e 21 155
e 21 156
e 21 157
e 21 159
e 21 166
e 21 167
e 21 168
e 21 170
e 21 172
e 21 175
e 21 178
e 21 182
e 21 184
e 21 186
e 21 187
e 21 191
e 21 193
e 21 196
e 21 197
e 21 202
e 21 212
e 21 213
e 21 217
e 21 218
e 21 219
e 21 220
e 21 222
e 21 224
e 21 225
e 21 227
e 21 228
e 21 229
e 21 230
e 21 232
e 21 233
e 21 234
e 21 235
e 21 236
e 21 237
e 21 238
e 21 239
e 21 241
e 21 242
e 21 243
e 21 245
e 21 249
e 21 250
e 22 30
e 22 32
e 22 33
e 22 35
e 22 36
e 22 37
e 22 38
e 22 39
e 22 40
e 22 46
e 22 47
e 22 50
e 22 56
e 22 57
e 22 58
e 22 59
e 22 60
e 22 62
e 22 64
e 22 66
e 22 69
e 22 71
e 22 72
e 22 74
e 22 76
e 22 78
e 22 80
e 22 85
e 22 89
e 22 91
e 22 92
e 22 93
e 22 97
e 22 98
e 22 102
e 22 103
e 22 105
e 22 106
e 22 109
e 22 111
e 22 114
e 22 116
e 22 117
e 22 119
e 22 122
e 22 123
e 22 125
e 22 128
e 22 130
e 22 131
e 22 134
e 22 140
e 22 141
e 22 144
e 22 146
e 22 153
e 22 155
e 22 156
e 22 157
e 22 159
e 22 161
e 22 162
e 22 163
e 22 166
e 22 167
e 22 168
e 22 172
e 22 173
e 22 175
e 22 177
e 22 179
e 22 180
e 22 183
e 22 184
e 22 186
e 22 188
e 22 189
e 22 190
e 22 192
e 22 194
e 22 197
e 22 200
e 22 201
e 22 207
e 22 208
e 22 212
e 22 213
e 22 214
e 22 215
e 22 216
e 22 219
e 22 220
e 22 221
e 22 225
e 22 226
e 22 228
e 22 229
e 22 230
e 22 231
e 22 236
e 22 240
e 22 241
e 22 242
e 22 243
e 22 246
e 22 247
e 22 248
e 22 249
e 23 28
e 23 29
e 23 37
e 23 39
e 23 40
e 23 41
e 23 42
e 23 44
e 23 45
e 23 46
e 23 47
e 23 49
e 23 52
e 23 54
e 23 56
e 23 58
e 23 60
e 23 64
e 23 65
e 23 66
e 23 67
e 23 68
e 23 70
e 23 72
e 23 73
e 23 75
e 23 79
e 23 80
e 23 81
e 23 83
e 23 84
e 23 87
e 23 89
e 23 91
e 23 92
e 23 93
e 23 94
e 23 96
e 23 99
e 23 100
e 23 101
e 23 102
e 23 104
e 23 105
e 23 106
e 23 107
e 23 109
e 23 110
e 23 111
e 23 112
e 23 115
e 23 116
e 23 118
e 23 121
e 23 122
e 23 128
e 23 129
e 23 131
e 23 134
e 23 135
e 23 138
e 23 140
e 23 142
e 23 143
e 23 144
e 23 147
e 23 150
e 23 151
e 23 154
e 23 159
e 23 160
e 23 161
e 23 162
e 23 163
e 23 165
e 23 166
e 23 168
e 23 169
e 23 172
e 23 173
e 23 175
e 23 178
e 23 182
e 23 184
e 23 185
e 23 186
e 23 189
e 23 190
e 23 193
e 23 194
e 23 196
e 23 197
e 23 198
e 23 200
e 23 202
e 23 204
e 23 207
e 23 208
e 23 215
e 23 216
e 23 220
e 23 225
e 23 227
e 23 228
e 23 229
e 23 230
e 23 231
e 23 238
e 23 241
e 23 243
e 23 246
e 23 247
e 23 249
e 23 250
e 24 25
e 24 26
e 24 27
e 24 28
e 24 29
e 24 31
e 24 33
e 24 34
e 24 35
e 24 37
e 24 38
e 24 40
e 24 45
e 24 51
e 24 52
e 24 55
e 24 56
e 24 59
e 24 61
e 24 63
e 24 64
e 24 69
e 24 70
e 24 72
e 24 73
e 24 74
e 24 76
e 24 77
e 24 79
e 24 80
e 24 81
e 24 83
e 24 84
e 24 87
e 24 90
e 24 92
e 24 93
e 24 101
e 24 102
e 24 104
e 24 105
e 24 106
e 24 108
e 24 109
e 24 113
e 24 114
e 24 115
e 24 117
e 24 118
e 24 119
e 24 120
e 24 122
e 24 123
e 24 124
e 24 126
e 24 127
e 24 128
e 24 130
e 24 134
e 24 139
e 24 140
e 24 141
e 24 146
e 24 148
e 24 150
e 24 153
e 24 154
e 24 158
e 24 160
e 24 163
e 24 164
e 24 166
e 24 170
e 24 171
e 24 174
e 24 176
e 24 179
e 24 180
e 24 185
e 24 186
e 24 189
e 24 190
e 24 193
e 24 194
e 24 202
e 24 203
e 24 204
e 24 207
e 24 208
e 24 210
e 24 211
e 24 212
e 24 213
e 24 214
e 24 215
e 24 218
e 24 221
e 24 227
e 24 228
e 24 229
e 24 230
e 24 231
e 24 232
e 24 233
e 24 236
e 24 240
e 24 244
e 24 247
e 24 249
e 25 27
e 25 28
e 25 29
e 25 34
e 25 35
e 25 36
e 25 40
e 25 41
e 25 42
e 25 43
e 25 45
e 25 47
e 25 48
e 25 49
e 25 51
e 25 54
e 25 55
e 25 56
e 25 59
e 25 62
e 25 72
e 25 74
e 25 75
e 25 76
e 25 83
e 25 87
e 25 88
e 25 90
e 25 91
e 25 92
e 25 100
e 25 101
e 25 102
e 25 104
e 25 105
e 25 106
e 25 110
e 25 111
e 25 112
e 25 113
e 25 116
e 25 118
e 25 122
e 25 123
e 25 125
e 25 127
e 25 132
e 25 138
e 25 140
e 25 146
e 25 147
e 25 148
e 25 156
e 25 157
e 25 159
e 25 160
e 25 162
e 25 164
e 25 166
e 25 167
e 25 169
e 25 173
e 25 174
e 25 176
e 25 177
e 25 180
e 25 182
e 25 184
e 25 187
e 25 188
e 25 189
e 25 190
e 25 192
e 25 193
e 25 195
e 25 197
e 25 199
e 25 202
e 25 203
e 25 206
e 25 207
e 25 208
e 25 210
e 25 214
e 25 215
e 25 219
e 25 221
e 25 222
e 25 223
e 25 224
e 25 225
e 25 227
e 25 232
e 25 235
e 25 237
e 25 241
e 25 244
e 25 249
e 26 29
e 26 31
e 26 32
e 26 33
e 26 34
e 26 35
e 26 36
e 26 37
e 26 41
e 26 45
e 26 46
e 26 48
e 26 49
e 26 51
e 26 52
e 26 53
e 26 58
e 26 60
e 26 61
e 26 69
e 26 72
e 26 73
e 26 79
e 26 82
e 26 87
e 26 88
e 26 89
e 26 90
e 26 92
e 26 99
e 26 102
e 26 105
e 26 106
e 26 107
e 26 108
e 26 112
e 26 114
e 26 116
e 26 119
e 26 120
e 26 121
e 26 122
e 26 123
e 26 125
e 26 127
e 26 128
e 26 129
e 26 131
e 26 135
e 26 136
e 26 137
e 26 141
e 26 144
e 26 145
e 26 146
e 26 148
e 26 150
e 26 154
e 26 155
e 26 156
e 26 157
e 26 159
e 26 160
e 26 162
e 26 163
e 26 165
e 26 166
e 26 167
e 26 168
e 26 169
e 26 172
e 26 175
e 26 176
e 26 178
e 26 179
e 26 182
e 26 183
e 26 184
e 26 188
e 26 189
e 26 190
e 26 191
e 26 195
e 26 198
e 26 200
e 26 201
e 26 204
e 26 205
e 26 207
e 26 208
e 26 209
e 26 210
e 26 211
e 26 212
e 26 213
e 26 217
e 26 218
e 26 219
e 26 221
e 26 222
e 26 223
e 26 225
e 26 227
e 26 228
e 26 229
e 26 230
e 26 233
e 26 235
e 26 236
e 26 238
e 26 240
e 26 241
e 26 244
e 26 245
e 26 246
e 26 250
e 27 28
e 27 30
e 27 33
e 27 35
e 27 36
e 27 37
e 27 38
e 27 39
e 27 40
e 27 41
e 27 43
e 27 48
e 27 53
e 27 55
e 27 58
e 27 60
e 27 61
e 27 63
e 27 64
e 27 65
e 27 66
e 27 70
e 27 73
e 27 74
e 27 76
e 27 78
e 27 83
e 27 86
e 27 88
e 27 89
e 27 92
e 27 94
e 27 97
e 27 98
e 27 100
e 27 102
e 27 103
e 27 104
e 27 105
e 27 106
e 27 108
e 27 110
e 27 111
e 27 112
e 27 115
e 27 118
e 27 121
e 27 122
e 27 123
e 27 124
e 27 126
e 27 127
e 27 128
e 27 129
e 27 130
e 27 131
e 27 132
e 27 136
e 27 137
e 27 138
e 27 140
e 27 142
e 27 144
e 27 147
e 27 148
e 27 150
e 27 152
e 27 154
e 27 157
e 27 162
e 27 164
e 27 165
e 27 166
e 27 169
e 27 172
e 27 175
e 27 177
e 27 179
e 27 180
e 27 181
e 27 186
e 27 188
e 27 190
e 27 191
e 27 192
e 27 193
e 27 195
e 27 198
e 27 202
e 27 204
e 27 207
e 27 211
e 27 212
e 27 214
e 27 215
e 27 217
e 27 218
e 27 221
e 27 223
e 27 224
e 27 227
e 27 228
e 27 230
e 27 231
e 27 234
e 27 235
e 27 236
e 27 237
e 27 243
e 27 244
e 27 249
e 27 250
e 28 31
e 28 32
e 28 34
e 28 36
e 28 39
e 28 41
e 28 43
e 28 47
e 28 51
e 28 52
e 28 57
e 28 63
e 28 64
e 28 66
e 28 67
e 28 70
e 28 71
e 28 72
e 28 74
e 28 75
e 28 76
e 28 77
e 28 79
e 28 81
e 28 82
e 28 84
e 28 87
e 28 93
e 28 94
e 28 95
e 28 96
e 28 100
e 28 101
e 28 104
e 28 106
e 28 107
e 28 108
e 28 110
e 28 111
e 28 112
e 28 114
e 28 119
e 28 120
e 28 122
e 28 123
e 28 125
e 28 127
e 28 129
e 28 132
e 28 133
e 28 135
e 28 136
e 28 139
e 28 140
e 28 141
e 28 144
e 28 147
e 28 149
e 28 152
e 28 158
e 28 159
e 28 160
e 28 161
e 28 162
e 28 167
e 28 172
e 28 173
e 28 177
e 28 178
e 28 179
e 28 180
e 28 182
e 28 183
e 28 184
e 28 186
e 28 188
e 28 189
e 28 190
e 28 191
e 28 193
e 28 194
e 28 195
e 28 196
e 28 205
e 28 207
e 28 208
e 28 210
e 28 214
e 28 215
e 28 216
e 28 217
e 28 219
e 28 221
e 28 222
e 28 224
e 28 227
e 28 228
e 28 229
e 28 230
e 28 232
e 28 234
e 28 235
e 28 238
e 28 241
e 28 242
e 28 243
e 28 244
e 28 245
e 28 246
e 28 250
e 29 30
e 29 32
e 29 34
e 29 40
e 29 44
e 29 47
e 29 48
e 29 49
e 29 52
e 29 53
e 29 54
e 29 55
e 29 57
e 29 61
e 29 63
e 29 65
e 29 66
e 29 67
e 29 74
e 29 75
e 29 77
e 29 78
e 29 80
e 29 81
e 29 82
e 29 84
e 29 86
e 29 96
e 29 97
e 29 98
e 29 99
e 29 101
e 29 103
e 29 104
e 29 105
e 29 107
e 29 108
e 29 109
e 29 113
e 29 114
e 29 115
e 29 120
e 29 122
e 29 123
e 29 124
e 29 127
e 29 128
e 29 129
e 29 130
e 29 131
e 29 133
e 29 139
e 29 140
e 29 144
e 29 145
e 29 147
e 29 149
e 29 150
e 29 153
e 29 154
e 29 155
e 29 157
e 29 159
e 29 160
e 29 162
e 29 163
e 29 165
e 29 166
e 29 167
e 29 168
e 29 169
e 29 171
e 29 172
e 29 173
e 29 176
e 29 178
e 29 179
e 29 180
e 29 181
e 29 183
e 29 184
e 29 186
e 29 189
e 29 190
e 29 191
e 29 194
e 29 196
e 29 199
e 29 200
e 29 203
e 29 204
e 29 208
e 29 214
e 29 215
e 29 216
e 29 217
e 29 218
e 29 219
e 29 220
e 29 223
e 29 225
e 29 228
e 29 229
e 29 230
e 29 234
e 29 236
e 29 237
e 29 238
e 29 241
e 29 243
e 29 246
e 29 247
e 29 249
e 29 250
e 30 38
e 30 40
e 30 41
e 30 42
e 30 45
e 30 47
e 30 49
e 30 50
e 30 53
e 30 58
e 30 59
e 30 61
e 30 64
e 30 65
e 30 66
e 30 67
e 30 68
e 30 71
e 30 73
e 30 78
e 30 79
e 30 81
e 30 83
e 30 84
e 30 85
e 30 91
e 30 92
e 30 95
e 30 98
e 30 100
e 30 105
e 30 106
e 30 110
e 30 111
e 30 112
e 30 113
e 30 116
e 30 117
e 30 118
e 30 119
e 30 120
e 30 122
e 30 128
e 30 130
e 30 133
e 30 134
e 30 136
e 30 137
e 30 138
e 30 140
e 30 143
e 30 144
e 30 145
e 30 147
e 30 151
e 30 152
e 30 154
e 30 156
e 30 157
e 30 159
e 30 161
e 30 164
e 30 165
e 30 168
e 30 169
e 30 170
e 30 171
e 30 173
e 30 174
e 30 177
e 30 178
e 30 180
e 30 181
e 30 183
e 30 187
e 30 188
e 30 190
e 30 191
e 30 192
e 30 193
e 30 194
e 30 195
e 30 196
e 30 198
e 30 199
e 30 201
e 30 202
e 30 205
e 30 206
e 30 207
e 30 209
e 30 211
e 30 212
e 30 213
e 30 214
e 30 216
e 30 219
e 30 220
e 30 222
e 30 224
e 30 225
e 30 227
e 30 232
e 30 234
e 30 235
e 30 236
e 30 237
e 30 239
e 30 241
e 30 243
e 30 246
e 30 247
e 30 249
e 31 33
e 31 37
e 31 38
e 31 39
e 31 41
e 31 42
e 31 46
e 31 47
e 31 48
e 31 52
e 31 55
e 31 58
e 31 61
e 31 62
e 31 63
e 31 68
e 31 69
e 31 70
e 31 72
e 31 73
e 31 74
e 31 75
e 31 76
e 31 78
e 31 90
e 31 91
e 31 94
e 31 95
e 31 98
e 31 103
e 31 105
e 31 106
e 31 111
e 31 112
e 31 113
e 31 114
e 31 117
e 31 118
e 31 119
e 31 120
e 31 121
e 31 124
e 31 125
e 31 126
e 31 128
e 31 134
e 31 140
e 31 141
e 31 143
e 31 144
e 31 146
e 31 147
e 31 148
e 31 150
e 31 153
e 31 154
e 31 155
e 31 158
e 31 159
e 31 161
e 31 162
e 31 164
e 31 169
e 31 173
e 31 174
e 31 177
e 31 180
e 31 181
e 31 182
e 31 185
e 31 187
e 31 188
e 31 192
e 31 193
e 31 200
e 31 202
e 31 206
e 31 207
e 31 208
e 31 209
e 31 213
e 31 214
e 31 215
e 31 220
e 31 223
e 31 225
e 31 227
e 31 228
e 31 229
e 31 233
e 31 234
e 31 236
e 31 237
e 31 240
e 31 241
e 31 244
e 31 245
e 31 246
e 31 249
e 32 34
e 32 38
e 32 39
e 32 42
e 32 44
e 32 46
e 32 47
e 32 51
e 32 52
e 32 53
e 32 57
e 32 60
e 32 61
e 32 62
e 32 64
e 32 65
e 32 67
e 32 70
e 32 71
e 32 72
e 32 73
e 32 74
e 32 79
e 32 80
e 32 82
e 32 83
e 32 85
e 32 87
e 32 91
e 32 96
e 32 100
e 32 101
e 32 102
e 32 103
e 32 104
e 32 105
e 32 106
e 32 108
e 32 110
e 32 112
e 32 115
e 32 117
e 32 119
e 32 120
e 32 121
e 32 126
e 32 127
e 32 128
e 32 129
e 32 130
e 32 137
e 32 139
e 32 145
e 32 146
e 32 147
e 32 149
e 32 153
e 32 156
e 32 157
e 32 162
e 32 163
e 32 164
e 32 166
e 32 167
e 32 170
e 32 172
e 32 174
e 32 175
e 32 176
e 32 177
e 32 181
e 32 184
e 32 185
e 32 190
e 32 192
e 32 194
e 32 196
e 32 197
e 32 198
e 32 200
e 32 201
e 32 203
e 32 204
e 32 205
e 32 208
e 32 211
e 32 212
e 32 214
e 32 216
e 32 219
e 32 220
e 32 222
e 32 225
e 32 227
e 32 230
e 32 232
e 32 233
e 32 237
e 32 238
e 32 240
e 32 241
e 32 249
e 32 250
e 33 34
e 33 35
e 33 39
e 33 42
e 33 43
e 33 44
e 33 46
e 33 47
e 33 48
e 33 49
e 33 54
e 33 55
e 33 58
e 33 61
e 33 62
e 33 64
e 33 66
e 33 70
e 33 72
e 33 73
e 33 74
e 33 76
e 33 78
e 33 79
e 33 80
e 33 81
e 33 82
e 33 83
e 33 86
e 33 88
e 33 89
e 33 92
e 33 95
e 33 98
e 33 100
e 33 102
e 33 103
e 33 105
e 33 108
e 33 110
e 33 111
e 33 113
e 33 116
e 33 118
e 33 119
e 33 121
e 33 123
e 33 125
e 33 126
e 33 127
e 33 134
e 33 135
e 33 136
e 33 141
e 33 144
e 33 145
e 33 146
e 33 148
e 33 152
e 33 156
e 33 158
e 33 160
e 33 162
e 33 163
e 33 165
e 33 166
e 33 167
e 33 169
e 33 170
e 33 172
e 33 177
e 33 178
e 33 179
e 33 180
e 33 185
e 33 186
e 33 190
e 33 192
e 33 193
e 33 194
e 33 196
e 33 197
e 33 198
e 33 200
e 33 204
e 33 206
e 33 207
e 33 208
e 33 209
e 33 210
e 33 211
e 33 213
e 33 214
e 33 215
e 33 216
e 33 217
e 33 219
e 33 221
e 33 222
e 33 226
e 33 228
e 33 232
e 33 233
e 33 234
e 33 236
e 33 239
e 33 240
e 33 242
e 33 243
e 33 244
e 33 245
e 33 248
e 33 249
e 34 36
e 34 37
e 34 39
e 34 40
e 34 42
e 34 43
e 34 46
e 34 47
e 34 48
e 34 50
e 34 51
e 34 52
e 34 53
e 34 54
e 34 56
e 34 59
e 34 60
e 34 62
e 34 64
e 34 65
e 34 66
e 34 68
e 34 72
e 34 74
e 34 75
e 34 78
e 34 79
e 34 80
e 34 82
e 34 83
e 34 84
e 34 85
e 34 87
e 34 88
e 34 90
e 34 95
e 34 96
e 34 97
e 34 98
e 34 100
e 34 101
e 34 104
e 34 106
e 34 107
e 34 108
e 34 110
e 34 112
e 34 114
e 34 119
e 34 120
e 34 121
e 34 122
e 34 125
e 34 126
e 34 127
e 34 130
e 34 133
e 34 136
e 34 137
e 34 138
e 34 139
e 34 142
e 34 146
e 34 147
e 34 148
e 34 149
e 34 152
e 34 155
e 34 156
e 34 158
e 34 159
e 34 162
e 34 163
e 34 164
e 34 165
e 34 166
e 34 171
e 34 174
e 34 176
e 34 177
e 34 178
e 34 179
e 34 181
e 34 182
e 34 185
e 34 187
e 34 193
e 34 194
e 34 196
e 34 198
e 34 200
e 34 201
e 34 202
e 34 203
e 34 204
e 34 205
e 34 206
e 34 209
e 34 210
e 34 212
e 34 213
e 34 216
e 34 217
e 34 220
e 34 222
e 34 224
e 34 229
e 34 230
e 34 232
e 34 234
e 34 237
e 34 238
e 34 240
e 34 242
e 34 243
e 34 244
e 34 248
e 34 249
e 34 250
e 35 36
e 35 40
e 35 41
e 35 42
e 35 45
e 35 46
e 35 48
e 35 50
e 35 51
e 35 53
e 35 55
e 35 56
e 35 58
e 35 62
e 35 65
e 35 67
e 35 68
e 35 70
e 35 74
e 35 75
e 35 77
e 35 81
e 35 85
e 35 86
e 35 87
e 35 89
e 35 94
e 35 98
e 35 99
e 35 100
e 35 102
e 35 104
e 35 105
e 35 106
e 35 110
e 35 113
e 35 114
e 35 115
e 35 116
e 35 117
e 35 118
e 35 120
e 35 125
e 35 129
e 35 130
e 35 132
e 35 137
e 35 139
e 35 143
e 35 146
e 35 148
e 35 150
e 35 152
e 35 153
e 35 154
e 35 158
e 35 161
e 35 165
e 35 167
e 35 171
e 35 175
e 35 176
e 35 178
e 35 180
e 35 182
e 35 183
e 35 184
e 35 185
e 35 186
e 35 188
e 35 189
e 35 190
e 35 192
e 35 193
e 35 195
e 35 196
e 35 197
e 35 198
e 35 199
e 35 201
e 35 202
e 35 205
e 35 207
e 35 208
e 35 209
e 35 210
e 35 211
e 35 213
e 35 214
e 35 215
e 35 219
e 35 221
e 35 223
e 35 224
e 35 225
e 35 226
e 35 227
e 35 229
e 35 232
e 35 234
e 35 235
e 35 237
e 35 238
e 35 239
e 35 241
e 35 243
e 35 244
e 35 245
e 35 248
e 36 37
e 36 38
e 36 39
e 36 40
e 36 41
e 36 43
e 36 44
e 36 45
e 36 47
e 36 49
e 36 52
e 36 54
e 36 55
e 36 56
e 36 57
e 36 58
e 36 60
e 36 61
e 36 62
e 36 63
e 36 65
e 36 66
e 36 68
e 36 71
e 36 72
e 36 73
e 36 74
e 36 78
e 36 82
e 36 84
e 36 86
e 36 87
e 36 88
e 36 93
e 36 94
e 36 95
e 36 97
e 36 103
e 36 104
e 36 108
e 36 109
e 36 110
e 36 111
e 36 112
e 36 120
e 36 123
e 36 126
e 36 131
e 36 134
e 36 135
e 36 136
e 36 139
e 36 140
e 36 143
e 36 147
e 36 148
e 36 149
e 36 153
e 36 154
e 36 156
e 36 157
e 36 159
e 36 160
e 36 162
e 36 163
e 36 164
e 36 166
e 36 170
e 36 171
e 36 172
e 36 175
e 36 177
e 36 179
e 36 180
e 36 181
e 36 183
e 36 185
e 36 186
e 36 187
e 36 191
e 36 192
e 36 194
e 36 196
e 36 199
e 36 200
e 36 205
e 36 210
e 36 211
e 36 213
e 36 214
e 36 217
e 36 220
e 36 221
e 36 222
e 36 225
e 36 228
e 36 230
e 36 236
e 36 241
e 36 242
e 36 244
e 36 245
e 36 247
e 36 249
e 37 41
e 37 42
e 37 44
e 37 45
e 37 46
e 37 50
e 37 51
e 37 52
e 37 53
e 37 56
e 37 58
e 37 59
e 37 62
e 37 63
e 37 68
e 37 69
e 37 71
e 37 73
e 37 77
e 37 81
e 37 84
e 37 90
e 37 91
e 37 92
e 37 93
e 37 94
e 37 95
e 37 96
e 37 101
e 37 104
e 37 107
e 37 108
e 37 111
e 37 115
e 37 116
e 37 117
e 37 119
e 37 126
e 37 128
e 37 129
e 37 133
e 37 136
e 37 137
e 37 138
e 37 139
e 37 140
e 37 141
e 37 145
e 37 148
e 37 150
e 37 151
e 37 152
e 37 154
e 37 158
e 37 160
e 37 161
e 37 162
e 37 163
e 37 164
e 37 166
e 37 167
e 37 169
e 37 174
e 37 176
e 37 177
e 37 179
e 37 180
e 37 181
e 37 182
e 37 186
e 37 188
e 37 190
e 37 192
e 37 193
e 37 195
e 37 197
e 37 199
e 37 200
e 37 204
e 37 207
e 37 212
e 37 214
e 37 215
e 37 216
e 37 218
e 37 219
e 37 221
e 37 223
e 37 224
e 37 230
e 37 231
e 37 234
e 37 235
e 37 236
e 37 238
e 37 239
e 37 240
e 37 241
e 37 242
e 37 244
e 37 245
e 37 246
e 37 249
e 38 39
e 38 40
e 38 43
e 38 45
e 38 48
e 38 53
e 38 55
e 38 56
e 38 57
e 38 58
e 38 59
e 38 60
e 38 62
e 38 63
e 38 66
e 38 69
e 38 71
e 38 72
e 38 73
e 38 74
e 38 81
e 38 82
e 38 83
e 38 84
e 38 85
e 38 88
e 38 89
e 38 91
e 38 97
e 38 100
e 38 102
e 38 103
e 38 105
e 38 106
e 38 109
e 38 110
e 38 111
e 38 112
e 38 113
e 38 114
e 38 115
e 38 117
e 38 119
e 38 120
e 38 122
e 38 125
e 38 126
e 38 127
e 38 128
e 38 129
e 38 131
e 38 133
e 38 134
e 38 137
e 38 140
e 38 141
e 38 147
e 38 148
e 38 149
e 38 150
e 38 153
e 38 154
e 38 158
e 38 160
e 38 161
e 38 163
e 38 165
e 38 167
e 38 168
e 38 169
e 38 172
e 38 173
e 38 177
e 38 180
e 38 181
e 38 183
e 38 184
e 38 185
e 38 187
e 38 189
e 38 190
e 38 191
e 38 193
e 38 194
e 38 195
e 38 196
e 38 198
e 38 201
e 38 202
e 38 204
e 38 205
e 38 206
e 38 209
e 38 213
e 38 216
e 38 218
e 38 222
e 38 227
e 38 228
e 38 229
e 38 232
e 38 234
e 38 235
e 38 236
e 38 237
e 38 239
e 38 241
e 38 242
e 38 244
e 38 245
e 38 246
e 38 249
e 39 41
e 39 47
e 39 50
e 39 53
e 39 54
e 39 55
e 39 56
e 39 60
e 39 65
e 39 71
e 39 72
e 39 74
e 39 76
e 39 81
e 39 82
e 39 88
e 39 89
e 39 90
e 39 93
e 39 94
e 39 99
e 39 100
e 39 101
e 39 103
e 39 104
e 39 108
e 39 111
e 39 112
e 39 115
e 39 118
e 39 119
e 39 126
e 39 127
e 39 128
e 39 131
e 39 134
e 39 136
e 39 140
e 39 141
e 39 142
e 39 143
e 39 147
e 39 148
e 39 149
e 39 150
e 39 151
e 39 152
e 39 153
e 39 158
e 39 159
e 39 164
e 39 165
e 39 166
e 39 167
e 39 169
e 39 174
e 39 176
e 39 179
e 39 180
e 39 181
e 39 182
e 39 186
e 39 187
e 39 188
e 39 190
e 39 191
e 39 198
e 39 200
e 39 205
e 39 206
e 39 207
e 39 212
e 39 213
e 39 218
e 39 221
e 39 223
e 39 226
e 39 227
e 39 228
e 39 229
e 39 233
e 39 234
e 39 235
e 39 239
e 39 240
e 39 241
e 39 242
e 39 246
e 39 247
e 39 248
e 39 249
e 39 250
e 40 41
e 40 42
e 40 44
e 40 46
e 40 50
e 40 52
e 40 53
e 40 54
e 40 55
e 40 56
e 40 58
e 40 60
e 40 62
e 40 67
e 40 69
e 40 71
e 40 72
e 40 74
e 40 76
e 40 78
e 40 80
e 40 81
e 40 84
e 40 87
e 40 90
e 40 95
e 40 98
e 40 100
e 40 101
e 40 103
e 40 105
e 40 107
e 40 110
e 40 111
e 40 114
e 40 115
e 40 116
e 40 117
e 40 118
e 40 119
e 40 120
e 40 121
e 40 124
e 40 126
e 40 128
e 40 129
e 40 134
e 40 135
e 40 139
e 40 140
e 40 142
e 40 145
e 40 147
e 40 148
e 40 154
e 40 155
e 40 156
e 40 157
e 40 159
e 40 160
e 40 161
e 40 162
e 40 164
e 40 165
e 40 166
e 40 167
e 40 170
e 40 172
e 40 175
e 40 178
e 40 180
e 40 181
e 40 182
e 40 185
e 40 186
e 40 189
e 40 195
e 40 197
e 40 198
e 40 199
e 40 203
e 40 205
e 40 206
e 40 207
e 40 210
e 40 211
e 40 212
e 40 216
e 40 219
e 40 225
e 40 228
e 40 229
e 40 230
e 40 231
e 40 233
e 40 235
e 40 236
e 40 239
e 40 241
e 40 242
e 40 244
e 40 245
e 40 246
e 40 249
e 41 44
e 41 45
e 41 47
e 41 49
e 41 52
e 41 54
e 41 57
e 41 59
e 41 62
e 41 64
e 41 65
e 41 70
e 41 71
e 41 72
e 41 73
e 41 76
e 41 78
e 41 80
e 41 81
e 41 83
e 41 85
e 41 89
e 41 90
e 41 92
e 41 96
e 41 97
e 41 100
e 41 101
e 41 103
e 41 106
e 41 108
e 41 109
e 41 111
e 41 112
e 41 119
e 41 124
e 41 126
e 41 133
e 41 134
e 41 139
e 41 140
e 41 141
e 41 142
e 41 144
e 41 145
e 41 147
e 41 148
e 41 149
e 41 151
e 41 153
e 41 154
e 41 155
e 41 156
e 41 162
e 41 163
e 41 164
e 41 167
e 41 168
e 41 170
e 41 172
e 41 173
e 41 174
e 41 176
e 41 177
e 41 178
e 41 179
e 41 182
e 41 183
e 41 185
e 41 188
e 41 191
e 41 194
e 41 199
e 41 200
e 41 201
e 41 204
e 41 206
e 41 207
e 41 208
e 41 209
e 41 212
e 41 215
e 41 216
e 41 220
e 41 222
e 41 224
e 41 225
e 41 227
e 41 232
e 41 233
e 41 235
e 41 236
e 41 238
e 41 243
e 41 246
e 41 248
e 41 249
e 42 43
e 42 49
e 42 50
e 42 55
e 42 56
e 42 57
e 42 59
e 42 60
e 42 61
e 42 62
e 42 64
e 42 65
e 42 67
e 42 68
e 42 70
e 42 72
e 42 77
e 42 81
e 42 82
e 42 83
e 42 85
e 42 86
e 42 88
e 42 91
e 42 93
e 42 96
e 42 97
e 42 98
e 42 99
e 42 100
e 42 101
e 42 105
e 42 107
e 42 108
e 42 110
e 42 112
e 42 115
e 42 116
e 42 120
e 42 122
e 42 124
e 42 126
e 42 127
e 42 129
e 42 130
e 42 132
e 42 133
e 42 135
e 42 136
e 42 140
e 42 142
e 42 144
e 42 145
e 42 146
e 42 147
e 42 151
e 42 154
e 42 157
e 42 158
e 42 161
e 42 164
e 42 165
e 42 166
e 42 167
e 42 169
e 42 171
e 42 172
e 42 175
e 42 176
e 42 181
e 42 188
e 42 190
e 42 191
e 42 193
e 42 200
e 42 201
e 42 203
e 42 204
e 42 208
e 42 210
e 42 211
e 42 212
e 42 213
e 42 214
e 42 216
e 42 217
e 42 219
e 42 220
e 42 221
e 42 222
e 42 225
e 42 226
e 42 229
e 42 231
e 42 232
e 42 233
e 42 235
e 42 239
e 42 240
e 42 241
e 42 242
e 42 244
e 42 245
e 42 246
e 42 247
e 42 250
e 43 44
e 43 47
e 43 48
e 43 49
e 43 50
e 43 51
e 43 54
e 43 57
e 43 58
e 43 61
e 43 62
e 43 65
e 43 66
e 43 67
e 43 68
e 43 70
e 43 72
e 43 73
e 43 74
e 43 75
e 43 80
e 43 82
e 43 83
e 43 84
e 43 88
e 43 89
e 43 90
e 43 91
e 43 92
e 43 95
e 43 97
e 43 101
e 43 102
e 43 103
e 43 104
e 43 105
e 43 107
e 43 108
e 43 109
e 43 110
e 43 112
e 43 116
e 43 117
e 43 118
e 43 119
e 43 120
e 43 121
e 43 123
e 43 125
e 43 126
e 43 127
e 43 128
e 43 130
e 43 131
e 43 132
e 43 133
e 43 135
e 43 136
e 43 138
e 43 139
e 43 142
e 43 148
e 43 150
e 43 151
e 43 157
e 43 158
e 43 159
e 43 160
e 43 161
e 43 162
e 43 163
e 43 164
e 43 165
e 43 167
e 43 169
e 43 171
e 43 172
e 43 174
e 43 175
e 43 176
e 43 177
e 43 178
e 43 179
e 43 180
e 43 181
e 43 182
e 43 183
e 43 184
e 43 185
e 43 189
e 43 190
e 43 192
e 43 193
e 43 198
e 43 200
e 43 202
e 43 204
e 43 208
e 43 209
e 43 211
e 43 212
e 43 213
e 43 214
e 43 215
e 43 217
e 43 219
e 43 221
e 43 222
e 43 223
e 43 225
e 43 230
e 43 231
e 43 233
e 43 235
e 43 238
e 43 239
e 43 243
e 43 244
e 43 248
e 43 250
e 44 47
e 44 48
e 44 49
e 44 53
e 44 55
e 44 57
e 44 58
e 44 64
e 44 69
e 44 70
e 44 71
e 44 72
e 44 73
e 44 74
e 44 78
e 44 79
e 44 80
e 44 82
e 44 83
e 44 86
e 44 88
e 44 89
e 44 91
e 44 93
e 44 95
e 44 103
e 44 110
e 44 113
e 44 115
e 44 117
e 44 121
e 44 122
e 44 124
e 44 128
e 44 129
e 44 130
e 44 131
e 44 132
e 44 133
e 44 135
e 44 137
e 44 138
e 44 144
e 44 148
e 44 149
e 44 150
e 44 151
e 44 155
e 44 158
e 44 162
e 44 163
e 44 166
e 44 167
e 44 169
e 44 175
e 44 176
e 44 177
e 44 179
e 44 180
e 44 181
e 44 182
e 44 186
e 44 187
e 44 188
e 44 190
e 44 191
e 44 192
e 44 193
e 44 194
e 44 195
e 44 196
e 44 198
e 44 200
e 44 205
e 44 213
e 44 217
e 44 219
e 44 220
e 44 221
e 44 222
e 44 224
e 44 228
e 44 229
e 44 230
e 44 232
e 44 233
e 44 236
e 44 238
e 44 241
e 44 246
e 44 247
e 44 250
e 45 48
e 45 51
e 45 52
e 45 53
e 45 54
e 45 55
e 45 57
e 45 58
e 45 59
e 45 61
e 45 63
e 45 64
e 45 68
e 45 72
e 45 73
e 45 76
e 45 78
e 45 79
e 45 80
e 45 81
e 45 84
e 45 85
e 45 86
e 45 90
e 45 91
e 45 93
e 45 99
e 45 102
e 45 103
e 45 104
e 45 106
e 45 107
e 45 114
e 45 117
e 45 119
e 45 121
e 45 122
e 45 123
e 45 124
e 45 126
e 45 128
e 45 131
e 45 132
e 45 135
e 45 136
e 45 137
e 45 138
e 45 145
e 45 147
e 45 148
e 45 152
e 45 154
e 45 156
e 45 158
e 45 160
e 45 162
e 45 163
e 45 165
e 45 166
e 45 168
e 45 174
e 45 177
e 45 181
e 45 183
e 45 185
e 45 186
e 45 187
e 45 188
e 45 189
e 45 192
e 45 194
e 45 196
e 45 199
e 45 205
e 45 208
e 45 212
e 45 214
e 45 215
e 45 216
e 45 218
e 45 222
e 45 223
e 45 229
e 45 231
e 45 232
e 45 235
e 45 236
e 45 238
e 45 240
e 45 248
e 46 47
e 46 49
e 46 52
e 46 55
e 46 58
e 46 60
e 46 61
e 46 62
e 46 64
e 46 66
e 46 68
e 46 70
e 46 72
e 46 73
e 46 74
e 46 79
e 46 82
e 46 83
e 46 84
e 46 86
e 46 87
e 46 92
e 46 94
e 46 95
e 46 97
e 46 98
e 46 100
e 46 101
e 46 102
e 46 106
e 46 107
e 46 108
e 46 109
e 46 112
e 46 120
e 46 121
e 46 123
e 46 125
e 46 126
e 46 127
e 46 128
e 46 129
e 46 131
e 46 132
e 46 133
e 46 134
e 46 136
e 46 142
e 46 144
e 46 145
e 46 146
e 46 147
e 46 149
e 46 153
e 46 154
e 46 155
e 46 156
e 46 157
e 46 158
e 46 160
e 46 161
e 46 163
e 46 164
e 46 169
e 46 170
e 46 173
e 46 178
e 46 179
e 46 180
e 46 185
e 46 187
e 46 188
e 46 192
e 46 195
e 46 197
e 46 201
e 46 203
e 46 204
e 46 206
e 46 207
e 46 208
e 46 211
e 46 212
e 46 213
e 46 215
e 46 217
e 46 219
e 46 222
e 46 224
e 46 229
e 46 230
e 46 231
e 46 237
e 46 239
e 46 241
e 46 243
e 46 244
e 46 245
e 46 246
e 46 247
e 47 48
e 47 51
e 47 52
e 47 53
e 47 58
e 47 59
e 47 63
e 47 65
e 47 68
e 47 69
e 47 71
e 47 75
e 47 76
e 47 77
e 47 79
e 47 80
e 47 84
e 47 85
e 47 89
e 47 90
e 47 91
e 47 92
e 47 96
e 47 97
e 47 102
e 47 103
e 47 109
e 47 110
e 47 113
e 47 114
e 47 115
e 47 116
e 47 117
e 47 118
e 47 120
e 47 122
e 47 124
e 47 126
e 47 128
e 47 129
e 47 131
e 47 132
e 47 133
e 47 134
e 47 135
e 47 137
e 47 138
e 47 145
e 47 147
e 47 150
e 47 156
e 47 158
e 47 160
e 47 161
e 47 164
e 47 166
e 47 167
e 47 168
e 47 172
e 47 174
e 47 177
e 47 179
e 47 180
e 47 184
e 47 186
e 47 191
e 47 194
e 47 196
e 47 199
e 47 202
e 47 204
e 47 205
e 47 206
e 47 207
e 47 211
e 47 212
e 47 214
e 47 218
e 47 221
e 47 222
e 47 225
e 47 227
e 47 230
e 47 233
e 47 234
e 47 235
e 47 238
e 47 239
e 47 240
e 47 241
e 47 246
e 47 248
e 48 49
e 48 50
e 48 52
e 48 56
e 48 59
e 48 60
e 48 61
e 48 65
e 48 67
e 48 69
e 48 71
e 48 74
e 48 76
e 48 78
e 48 79
e 48 81
e 48 82
e 48 84
e 48 87
e 48 89
e 48 96
e 48 102
e 48 104
e 48 108
e 48 110
e 48 112
e 48 114
e 48 116
e 48 117
e 48 119
e 48 123
e 48 127
e 48 128
e 48 132
e 48 134
e 48 138
e 48 139
e 48 140
e 48 141
e 48 143
e 48 147
e 48 149
e 48 151
e 48 156
e 48 157
e 48 161
e 48 166
e 48 167
e 48 169
e 48 170
e 48 171
e 48 172
e 48 174
e 48 175
e 48 178
e 48 180
e 48 181
e 48 189
e 48 190
e 48 192
e 48 195
e 48 198
e 48 199
e 48 201
e 48 202
e 48 203
e 48 206
e 48 207
e 48 208
e 48 209
e 48 212
e 48 216
e 48 217
e 48 218
e 48 220
e 48 224
e 48 225
e 48 227
e 48 228
e 48 230
e 48 233
e 48 235
e 48 236
e 48 237
e 48 240
e 48 241
e 48 242
e 48 243
e 48 245
e 48 248
e 48 250
e 49 50
e 49 52
e 49 54
e 49 59
e 49 62
e 49 65
e 49 66
e 49 69
e 49 71
e 49 73
e 49 76
e 49 78
e 49 80
e 49 81
e 49 82
e 49 83
e 49 86
e 49 87
e 49 88
e 49 90
e 49 93
e 49 95
e 49 96
e 49 97
e 49 98
e 49 100
e 49 101
e 49 103
e 49 104
e 49 112
e 49 116
e 49 118
e 49 119
e 49 120
e 49 121
e 49 124
e 49 126
e 49 128
e 49 130
e 49 134
e 49 135
e 49 136
e 49 138
e 49 139
e 49 143
e 49 148
e 49 149
e 49 151
e 49 152
e 49 154
e 49 155
e 49 158
e 49 159
e 49 165
e 49 166
e 49 171
e 49 172
e 49 178
e 49 180
e 49 181
e 49 186
e 49 188
e 49 191
e 49 193
e 49 194
e 49 197
e 49 199
e 49 202
e 49 205
e 49 206
e 49 208
e 49 209
e 49 212
e 49 214
e 49 215
e 49 216
e 49 217
e 49 218
e 49 222
e 49 223
e 49 225
e 49 226
e 49 229
e 49 230
e 49 232
e 49 234
e 49 235
e 49 236
e 49 237
e 49 241
e 49 242
e 49 245
e 49 249
e 49 250
e 50 51
e 50 52
e 50 54
e 50 55
e 50 59
e 50 60
e 50 62
e 50 65
e 50 66
e 50 69
e 50 72
e 50 77
e 50 78
e 50 79
e 50 80
e 50 81
e 50 83
e 50 85
e 50 86
e 50 87
e 50 89
e 50 91
e 50 92
e 50 94
e 50 97
e 50 98
e 50 99
e 50 104
e 50 105
e 50 107
e 50 111
e 50 112
e 50 113
e 50 116
e 50 117
e 50 118
e 50 119
e 50 120
e 50 121
e 50 125
e 50 127
e 50 128
e 50 129
e 50 134
e 50 135
e 50 136
e 50 138
e 50 139
e 50 140
e 50 141
e 50 142
e 50 144
e 50 145
e 50 148
e 50 151
e 50 155
e 50 158
e 50 159
e 50 160
e 50 161
e 50 163
e 50 164
e 50 165
e 50 166
e 50 167
e 50 169
e 50 171
e 50 173
e 50 176
e 50 178
e 50 182
e 50 183
e 50 184
e 50 185
e 50 186
e 50 187
e 50 188
e 50 189
e 50 190
e 50 191
e 50 196
e 50 199
e 50 200
e 50 201
e 50 202
e 50 205
e 50 206
e 50 207
e 50 209
e 50 210
e 50 211
e 50 215
e 50 218
e 50 219
e 50 221
e 50 223
e 50 225
e 50 229
e 50 232
e 50 233
e 50 234
e 50 236
e 50 237
e 50 240
e 50 241
e 50 242
e 50 243
e 50 244
e 50 246
e 50 248
e 50 249
e 51 54
e 51 56
e 51 58
e 51 60
e 51 61
e 51 64
e 51 68
e 51 69
e 51 70
e 51 71
e 51 72
e 51 74
e 51 76
e 51 77
e 51 78
e 51 80
e 51 83
e 51 85
e 51 86
e 51 87
e 51 89
e 51 95
e 51 96
e 51 98
e 51 99
e 51 101
e 51 103
e 51 104
e 51 106
e 51 110
e 51 112
e 51 114
e 51 119
e 51 121
e 51 123
e 51 124
e 51 127
e 51 128
e 51 130
e 51 134
e 51 135
e 51 137
e 51 140
e 51 141
e 51 142
e 51 144
e 51 146
e 51 148
e 51 149
e 51 155
e 51 156
e 51 158
e 51 161
e 51 165
e 51 166
e 51 168
e 51 169
e 51 171
e 51 174
e 51 175
e 51 177
e 51 178
e 51 179
e 51 181
e 51 182
e 51 185
e 51 190
e 51 192
e 51 194
e 51 197
e 51 200
e 51 203
e 51 208
e 51 210
e 51 211
e 51 213
e 51 214
e 51 216
e 51 217
e 51 218
e 51 220
e 51 221
e 51 222
e 51 226
e 51 227
e 51 229
e 51 231
e 51 235
e 51 236
e 51 238
e 51 240
e 51 241
e 51 243
e 51 244
e 51 249
e 51 250
e 52 55
e 52 59
e 52 61
e 52 66
e 52 67
e 52 70
e 52 71
e 52 74
e 52 78
e 52 79
e 52 82
e 52 83
e 52 85
e 52 91
e 52 93
e 52 94
e 52 96
e 52 97
e 52 102
e 52 103
e 52 104
e 52 105
e 52 106
e 52 108
e 52 109
e 52 110
e 52 111
e 52 118
e 52 119
e 52 124
e 52 126
e 52 127
e 52 129
e 52 130
e 52 132
e 52 133
e 52 135
e 52 137
e 52 138
e 52 141
e 52 142
e 52 144
e 52 145
e 52 146
e 52 147
e 52 149
e 52 150
e 52 152
e 52 153
e 52 155
e 52 161
e 52 163
e 52 165
e 52 167
e 52 168
e 52 169
e 52 170
e 52 171
e 52 173
e 52 176
e 52 181
e 52 189
e 52 190
e 52 203
e 52 208
e 52 209
e 52 212
e 52 215
e 52 218
e 52 220
e 52 223
e 52 225
e 52 227
e 52 228
e 52 232
e 52 233
e 52 234
e 52 238
e 52 239
e 52 240
e 52 241
e 52 242
e 52 243
e 52 244
e 52 245
e 52 246
e 52 248
e 52 249
e 52 250
e 53 56
e 53 57
e 53 61
e 53 64
e 53 66
e 53 67
e 53 68
e 53 70
e 53 72
e 53 78
e 53 81
e 53 86
e 53 87
e 53 88
e 53 89
e 53 90
e 53 91
e 53 95
e 53 96
e 53 98
e 53 101
e 53 102
e 53 104
e 53 105
e 53 106
e 53 109
e 53 111
e 53 112
e 53 113
e 53 117
e 53 122
e 53 123
e 53 124
e 53 125
e 53 127
e 53 128
e 53 129
e 53 130
e 53 133
e 53 134
e 53 135
e 53 136
e 53 142
e 53 147
e 53 148
e 53 151
e 53 153
e 53 154
e 53 160
e 53 161
e 53 162
e 53 164
e 53 165
e 53 166
e 53 167
e 53 169
e 53 170
e 53 175
e 53 180
e 53 181
e 53 182
e 53 183
e 53 184
e 53 185
e 53 186
e 53 190
e 53 191
e 53 194
e 53 195
e 53 196
e 53 197
e 53 201
e 53 208
e 53 209
e 53 210
e 53 211
e 53 212
e 53 215
e 53 216
e 53 217
e 53 220
e 53 221
e 53 222
e 53 223
e 53 224
e 53 225
e 53 228
e 53 230
e 53 233
e 53 238
e 53 239
e 53 240
e 53 241
e 53 242
e 53 243
e 53 245
e 53 248
e 53 249
e 54 55
e 54 57
e 54 60
e 54 61
e 54 64
e 54 69
e 54 70
e 54 72
e 54 74
e 54 75
e 54 78
e 54 80
e 54 81
e 54 82
e 54 83
e 54 84
e 54 90
e 54 91
e 54 92
e 54 93
e 54 96
e 54 98
e 54 99
e 54 100
e 54 103
e 54 105
e 54 114
e 54 115
e 54 117
e 54 120
e 54 121
e 54 123
e 54 124
e 54 126
e 54 127
e 54 130
e 54 132
e 54 133
e 54 136
e 54 145
e 54 146
e 54 151
e 54 155
e 54 156
e 54 157
e 54 159
e 54 162
e 54 163
e 54 164
e 54 166
e 54 169
e 54 170
e 54 171
e 54 175
e 54 178
e 54 180
e 54 182
e 54 183
e 54 187
e 54 192
e 54 195
e 54 198
e 54 199
e 54 202
e 54 203
e 54 204
e 54 205
e 54 206
e 54 208
e 54 209
e 54 211
e 54 212
e 54 213
e 54 215
e 54 216
e 54 217
e 54 223
e 54 228
e 54 231
e 54 232
e 54 235
e 54 236
e 54 240
e 54 241
e 54 243
e 54 244
e 54 245
e 54 246
e 54 247
e 54 248
e 54 249
e 54 250
e 55 61
e 55 66
e 55 67
e 55 68
e 55 76
e 55 77
e 55 79
e 55 80
e 55 86
e 55 87
e 55 89
e 55 93
e 55 94
e 55 95
e 55 96
e 55 98
e 55 101
e 55 103
e 55 106
e 55 107
e 55 109
e 55 110
e 55 114
e 55 116
e 55 117
e 55 118
e 55 119
e 55 121
e 55 122
e 55 127
e 55 128
e 55 130
e 55 132
e 55 133
e 55 134
e 55 140
e 55 148
e 55 149
e 55 151
e 55 152
e 55 155
e 55 157
e 55 158
e 55 159
e 55 160
e 55 161
e 55 162
e 55 164
e 55 165
e 55 167
e 55 169
e 55 170
e 55 171
e 55 172
e 55 178
e 55 179
e 55 182
e 55 183
e 55 189
e 55 190
e 55 193
e 55 194
e 55 195
e 55 197
e 55 198
e 55 199
e 55 201
e 55 203
e 55 205
e 55 206
e 55 207
e 55 208
e 55 211
e 55 214
e 55 216
e 55 217
e 55 221
e 55 222
e 55 223
e 55 225
e 55 226
e 55 229
e 55 233
e 55 236
e 55 237
e 55 239
e 55 240
e 55 243
e 55 244
e 55 245
e 55 246
e 55 248
e 55 249
e 56 58
e 56 61
e 56 64
e 56 65
e 56 66
e 56 70
e 56 72
e 56 74
e 56 75
e 56 76
e 56 77
e 56 79
e 56 80
e 56 82
e 56 83
e 56 85
e 56 88
e 56 89
e 56 90
e 56 92
e 56 93
e 56 96
e 56 98
e 56 99
e 56 100
e 56 101
e 56 106
e 56 107
e 56 108
e 56 109
e 56 110
e 56 111
e 56 112
e 56 114
e 56 116
e 56 117
e 56 120
e 56 121
e 56 125
e 56 128
e 56 134
e 56 137
e 56 142
e 56 143
e 56 151
e 56 152
e 56 154
e 56 155
e 56 160
e 56 164
e 56 167
e 56 169
e 56 172
e 56 173
e 56 176
e 56 178
e 56 182
e 56 183
e 56 185
e 56 186
e 56 187
e 56 188
e 56 190
e 56 192
e 56 194
e 56 196
e 56 197
e 56 198
e 56 199
e 56 201
e 56 202
e 56 205
e 56 206
e 56 208
e 56 211
e 56 212
e 56 213
e 56 214
e 56 218
e 56 220
e 56 222
e 56 224
e 56 225
e 56 226
e 56 228
e 56 230
e 56 232
e 56 233
e 56 237
e 56 239
e 56 240
e 56 241
e 56 243
e 56 244
e 56 246
e 56 247
e 56 248
e 56 250
e 57 64
e 57 67
e 57 68
e 57 69
e 57 71
e 57 73
e 57 77
e 57 79
e 57 80
e 57 83
e 57 84
e 57 85
e 57 86
e 57 88
e 57 93
e 57 94
e 57 99
e 57 100
e 57 101
e 57 102
e 57 104
e 57 105
e 57 106
e 57 107
e 57 110
e 57 113
e 57 114
e 57 115
e 57 116
e 57 120
e 57 125
e 57 126
e 57 130
e 57 131
e 57 133
e 57 134
e 57 135
e 57 136
e 57 140
e 57 141
e 57 142
e 57 143
e 57 146
e 57 149
e 57 150
e 57 154
e 57 157
e 57 158
e 57 162
e 57 163
e 57 166
e 57 168
e 57 169
e 57 170
e 57 171
e 57 172
e 57 176
e 57 177
e 57 178
e 57 180
e 57 182
e 57 187
e 57 189
e 57 192
e 57 194
e 57 198
e 57 200
e 57 202
e 57 203
e 57 204
e 57 205
e 57 206
e 57 207
e 57 212
e 57 215
e 57 218
e 57 220
e 57 221
e 57 222
e 57 228
e 57 230
e 57 231
e 57 232
e 57 233
e 57 234
e 57 235
e 57 238
e 57 242
e 57 244
e 57 248
e 58 62
e 58 63
e 58 65
e 58 67
e 58 69
e 58 72
e 58 76
e 58 77
e 58 78
e 58 79
e 58 80
e 58 81
e 58 82
e 58 83
e 58 85
e 58 90
e 58 92
e 58 94
e 58 95
e 58 96
e 58 97
e 58 98
e 58 101
e 58 103
e 58 105
e 58 106
e 58 108
e 58 110
e 58 111
e 58 113
e 58 114
e 58 116
e 58 118
e 58 119
e 58 120
e 58 121
e 58 125
e 58 128
e 58 131
e 58 132
e 58 134
e 58 135
e 58 136
e 58 140
e 58 141
e 58 150
e 58 151
e 58 152
e 58 153
e 58 155
e 58 157
e 58 158
e 58 161
e 58 165
e 58 170
e 58 171
e 58 175
e 58 178
e 58 179
e 58 180
e 58 181
e 58 183
e 58 184
e 58 185
e 58 186
e 58 191
e 58 193
e 58 195
e 58 196
e 58 197
e 58 198
e 58 199
e 58 200
e 58 201
e 58 202
e 58 203
e 58 206
e 58 208
e 58 211
e 58 214
e 58 215
e 58 217
e 58 218
e 58 220
e 58 221
e 58 222
e 58 226
e 58 229
e 58 230
e 58 231
e 58 232
e 58 233
e 58 234
e 58 237
e 58 238
e 58 239
e 58 241
e 58 244
e 58 245
e 58 246
e 58 247
e 58 248
e 58 249
e 59 61
e 59 62
e 59 64
e 59 67
e 59 69
e 59 71
e 59 72
e 59 76
e 59 79
e 59 82
e 59 83
e 59 84
e 59 87
e 59 89
e 59 93
e 59 95
e 59 97
e 59 98
e 59 99
e 59 100
e 59 102
e 59 104
e 59 107
e 59 109
e 59 113
e 59 115
e 59 116
e 59 117
e 59 118
e 59 120
e 59 121
e 59 122
e 59 123
e 59 125
e 59 126
e 59 127
e 59 128
e 59 130
e 59 133
e 59 134
e 59 136
e 59 138
e 59 139
e 59 140
e 59 141
e 59 144
e 59 145
e 59 146
e 59 151
e 59 153
e 59 154
e 59 156
e 59 161
e 59 162
e 59 164
e 59 165
e 59 166
e 59 167
e 59 168
e 59 173
e 59 175
e 59 179
e 59 181
e 59 183
e 59 184
e 59 185
e 59 187
e 59 188
e 59 192
e 59 194
e 59 196
e 59 206
e 59 208
e 59 210
e 59 211
e 59 212
e 59 215
e 59 216
e 59 217
e 59 222
e 59 226
e 59 227
e 59 228
e 59 230
e 59 234
e 59 236
e 59 238
e 59 243
e 59 245
e 59 247
e 59 249
e 59 250
e 60 63
e 60 64
e 60 65
e 60 67
e 60 68
e 60 70
e 60 72
e 60 77
e 60 78
e 60 79
e 60 81
e 60 82
e 60 84
e 60 88
e 60 89
e 60 91
e 60 96
e 60 97
e 60 98
e 60 104
e 60 105
e 60 106
e 60 108
e 60 109
e 60 111
e 60 112
e 60 114
e 60 116
e 60 122
e 60 123
e 60 129
e 60 131
e 60 134
e 60 139
e 60 142
e 60 144
e 60 148
e 60 149
e 60 154
e 60 156
e 60 157
e 60 159
e 60 160
e 60 165
e 60 166
e 60 168
e 60 170
e 60 176
e 60 177
e 60 178
e 60 179
e 60 180
e 60 183
e 60 187
e 60 189
e 60 191
e 60 192
e 60 194
e 60 195
e 60 199
e 60 202
e 60 203
e 60 204
e 60 205
e 60 206
e 60 207
e 60 210
e 60 215
e 60 216
e 60 221
e 60 222
e 60 225
e 60 226
e 60 228
e 60 229
e 60 230
e 60 238
e 60 240
e 60 241
e 60 243
e 60 244
e 60 246
e 60 247
e 60 248
e 60 250
e 61 64
e 61 66
e 61 69
e 61 71
e 61 74
e 61 76
e 61 77
e 61 78
e 61 80
e 61 83
e 61 86
e 61 89
e 61 90
e 61 91
e 61 94
e 61 95
e 61 98
e 61 101
e 61 110
e 61 111
e 61 112
e 61 115
e 61 116
e 61 117
e 61 119
e 61 124
e 61 125
e 61 128
e 61 130
e 61 132
e 61 137
e 61 139
e 61 141
e 61 143
e 61 149
e 61 152
e 61 153
e 61 155
e 61 156
e 61 157
e 61 160
e 61 162
e 61 163
e 61 169
e 61 170
e 61 171
e 61 173
e 61 176
e 61 177
e 61 182
e 61 183
e 61 184
e 61 185
e 61 188
e 61 190
e 61 193
e 61 199
e 61 200
e 61 202
e 61 203
e 61 204
e 61 205
e 61 208
e 61 209
e 61 210
e 61 212
e 61 213
e 61 216
e 61 217
e 61 220
e 61 222
e 61 223
e 61 224
e 61 227
e 61 230
e 61 235
e 61 238
e 61 239
e 61 242
e 61 243
e 61 245
e 61 247
e 62 63
e 62 68
e 62 70
e 62 71
e 62 73
e 62 78
e 62 79
e 62 80
e 62 82
e 62 83
e 62 84
e 62 87
e 62 88
e 62 92
e 62 94
e 62 97
e 62 98
e 62 102
e 62 107
e 62 110
e 62 111
e 62 112
e 62 113
e 62 117
e 62 118
e 62 119
e 62 120
e 62 123
e 62 124
e 62 125
e 62 128
e 62 130
e 62 131
e 62 133
e 62 137
e 62 142
e 62 143
e 62 144
e 62 147
e 62 152
e 62 155
e 62 156
e 62 157
e 62 158
e 62 160
e 62 164
e 62 165
e 62 166
e 62 167
e 62 169
e 62 170
e 62 171
e 62 178
e 62 180
e 62 182
e 62 183
e 62 184
e 62 185
e 62 186
e 62 189
e 62 190
e 62 194
e 62 195
e 62 197
e 62 200
e 62 201
e 62 204
e 62 207
e 62 208
e 62 210
e 62 211
e 62 212
e 62 213
e 62 214
e 62 218
e 62 219
e 62 220
e 62 224
e 62 225
e 62 227
e 62 230
e 62 231
e 62 233
e 62 235
e 62 239
e 62 240
e 62 241
e 62 242
e 62 243
e 62 245
e 62 246
e 62 247
e 63 65
e 63 66
e 63 68
e 63 72
e 63 74
e 63 78
e 63 79
e 63 80
e 63 83
e 63 84
e 63 88
e 63 90
e 63 91
e 63 92
e 63 94
e 63 95
e 63 96
e 63 97
e 63 98
e 63 99
e 63 100
e 63 105
e 63 106
e 63 108
e 63 110
e 63 111
e 63 112
e 63 115
e 63 117
e 63 119
e 63 120
e 63 121
e 63 125
e 63 127
e 63 128
e 63 129
e 63 131
e 63 134
e 63 135
e 63 137
e 63 140
e 63 141
e 63 142
e 63 143
e 63 144
e 63 147
e 63 148
e 63 150
e 63 153
e 63 156
e 63 158
e 63 160
e 63 162
e 63 163
e 63 167
e 63 168
e 63 173
e 63 175
e 63 180
e 63 181
e 63 182
e 63 185
e 63 187
e 63 189
e 63 190
e 63 193
e 63 195
e 63 196
e 63 197
e 63 198
e 63 199
e 63 200
e 63 202
e 63 203
e 63 204
e 63 208
e 63 210
e 63 211
e 63 212
e 63 217
e 63 218
e 63 220
e 63 224
e 63 226
e 63 227
e 63 230
e 63 233
e 63 235
e 63 238
e 63 244
e 63 247
e 63 248
e 64 65
e 64 66
e 64 68
e 64 69
e 64 70
e 64 72
e 64 73
e 64 74
e 64 79
e 64 80
e 64 82
e 64 83
e 64 85
e 64 89
e 64 93
e 64 95
e 64 96
e 64 99
e 64 103
e 64 104
e 64 105
e 64 106
e 64 107
e 64 108
e 64 110
e 64 114
e 64 115
e 64 116
e 64 118
e 64 123
e 64 132
e 64 133
e 64 134
e 64 135
e 64 136
e 64 137
e 64 138
e 64 140
e 64 141
e 64 146
e 64 147
e 64 148
e 64 152
e 64 158
e 64 159
e 64 166
e 64 168
e 64 173
e 64 176
e 64 179
e 64 181
e 64 183
e 64 184
e 64 185
e 64 186
e 64 188
e 64 189
e 64 190
e 64 194
e 64 195
e 64 196
e 64 197
e 64 198
e 64 200
e 64 203
e 64 204
e 64 205
e 64 206
e 64 210
e 64 213
e 64 214
e 64 215
e 64 217
e 64 221
e 64 225
e 64 231
e 64 233
e 64 234
e 64 238
e 64 239
e 64 241
e 64 242
e 64 243
e 64 244
e 64 248
e 64 250
e 65 66
e 65 67
e 65 70
e 65 74
e 65 76
e 65 77
e 65 79
e 65 81
e 65 84
e 65 86
e 65 88
e 65 95
e 65 96
e 65 97
e 65 99
e 65 101
e 65 104
e 65 107
e 65 108
e 65 109
e 65 110
e 65 112
e 65 113
e 65 114
e 65 115
e 65 118
e 65 119
e 65 121
e 65 128
e 65 129
e 65 131
e 65 132
e 65 133
e 65 134
e 65 135
e 65 136
e 65 138
e 65 140
e 65 145
e 65 146
e 65 147
e 65 148
e 65 150
e 65 151
e 65 152
e 65 153
e 65 154
e 65 155
e 65 158
e 65 159
e 65 160
e 65 162
e 65 164
e 65 166
e 65 167
e 65 169
e 65 173
e 65 175
e 65 176
e 65 177
e 65 178
e 65 179
e 65 180
e 65 181
e 65 182
e 65 183
e 65 184
e 65 187
e 65 188
e 65 189
e 65 192
e 65 193
e 65 194
e 65 195
e 65 198
e 65 199
e 65 203
e 65 206
e 65 207
e 65 210
e 65 211
e 65 213
e 65 215
e 65 217
e 65 218
e 65 222
e 65 223
e 65 224
e 65 225
e 65 228
e 65 230
e 65 231
e 65 232
e 65 234
e 65 235
e 65 236
e 65 238
e 65 243
e 65 247
e 65 248
e 65 250
e 66 67
e 66 69
e 66 70
e 66 71
e 66 72
e 66 75
e 66 77
e 66 78
e 66 80
e 66 81
e 66 83
e 66 88
e 66 89
e 66 92
e 66 94
e 66 97
e 66 99
e 66 102
e 66 105
e 66 108
e 66 109
e 66 111
e 66 112
e 66 114
e 66 117
e 66 119
e 66 120
e 66 123
e 66 124
e 66 125
e 66 126
e 66 131
e 66 133
e 66 134
e 66 136
e 66 138
e 66 139
e 66 140
e 66 142
e 66 143
e 66 145
e 66 147
e 66 148
e 66 149
e 66 150
e 66 151
e 66 155
e 66 157
e 66 158
e 66 160
e 66 170
e 66 173
e 66 175
e 66 177
e 66 178
e 66 180
e 66 182
e 66 183
e 66 185
e 66 186
e 66 189
e 66 191
e 66 192
e 66 193
e 66 197
e 66 198
e 66 201
e 66 203
e 66 204
e 66 205
e 66 207
e 66 212
e 66 213
e 66 216
e 66 217
e 66 221
e 66 223
e 66 224
e 66 225
e 66 227
e 66 228
e 66 232
e 66 233
e 66 235
e 66 236
e 66 239
e 66 240
e 66 243
e 66 244
e 66 245
e 66 246
e 66 247
e 66 248
e 67 68
e 67 70
e 67 72
e 67 73
e 67 75
e 67 78
e 67 79
e 67 83
e 67 84
e 67 96
e 67 97
e 67 99
e 67 100
e 67 102
e 67 103
e 67 105
e 67 106
e 67 107
e 67 111
e 67 114
e 67 115
e 67 117
e 67 123
e 67 124
e 67 126
e 67 127
e 67 128
e 67 135
e 67 138
e 67 139
e 67 140
e 67 144
e 67 145
e 67 146
e 67 148
e 67 150
e 67 151
e 67 152
e 67 153
e 67 154
e 67 156
e 67 157
e 67 158
e 67 161
e 67 165
e 67 166
e 67 167
e 67 175
e 67 178
e 67 184
e 67 188
e 67 191
e 67 194
e 67 198
e 67 199
e 67 201
e 67 203
e 67 208
e 67 210
e 67 211
e 67 213
e 67 214
e 67 218
e 67 221
e 67 223
e 67 224
e 67 225
e 67 227
e 67 232
e 67 236
e 67 238
e 67 239
e 67 241
e 67 246
e 67 247
e 67 249
e 67 250
e 68 69
e 68 74
e 68 75
e 68 76
e 68 77
e 68 78
e 68 79
e 68 81
e 68 84
e 68 85
e 68 87
e 68 89
e 68 90
e 68 91
e 68 92
e 68 93
e 68 96
e 68 97
e 68 103
e 68 104
e 68 105
e 68 108
e 68 109
e 68 110
e 68 113
e 68 115
e 68 118
e 68 120
e 68 124
e 68 129
e 68 132
e 68 136
e 68 137
e 68 138
e 68 141
e 68 142
e 68 144
e 68 149
e 68 151
e 68 155
e 68 156
e 68 157
e 68 163
e 68 164
e 68 166
e 68 167
e 68 168
e 68 171
e 68 172
e 68 173
e 68 174
e 68 178
e 68 180
e 68 181
e 68 188
e 68 189
e 68 192
e 68 202
e 68 204
e 68 205
e 68 206
e 68 209
e 68 212
e 68 213
e 68 214
e 68 217
e 68 220
e 68 221
e 68 222
e 68 224
e 68 225
e 68 229
e 68 230
e 68 231
e 68 236
e 68 237
e 68 238
e 68 239
e 68 241
e 68 244
e 68 246
e 68 248
e 69 70
e 69 71
e 69 74
e 69 77
e 69 81
e 69 82
e 69 83
e 69 84
e 69 85
e 69 88
e 69 95
e 69 96
e 69 97
e 69 99
e 69 102
e 69 107
e 69 108
e 69 110
e 69 114
e 69 118
e 69 120
e 69 121
e 69 123
e 69 124
e 69 125
e 69 128
e 69 131
e 69 132
e 69 134
e 69 136
e 69 138
e 69 140
e 69 144
e 69 145
e 69 146
e 69 147
e 69 148
e 69 149
e 69 150
e 69 151
e 69 152
e 69 153
e 69 154
e 69 155
e 69 156
e 69 157
e 69 158
e 69 159
e 69 160
e 69 166
e 69 167
e 69 168
e 69 171
e 69 175
e 69 176
e 69 178
e 69 180
e 69 182
e 69 183
e 69 184
e 69 185
e 69 187
e 69 194
e 69 195
e 69 196
e 69 197
e 69 201
e 69 204
e 69 206
e 69 213
e 69 214
e 69 215
e 69 220
e 69 222
e 69 223
e 69 231
e 69 232
e 69 233
e 69 236
e 69 237
e 69 240
e 69 245
e 69 246
e 69 249
e 70 72
e 70 73
e 70 74
e 70 78
e 70 80
e 70 83
e 70 87
e 70 88
e 70 90
e 70 91
e 70 93
e 70 95
e 70 96
e 70 97
e 70 101
e 70 102
e 70 107
e 70 113
e 70 114
e 70 115
e 70 118
e 70 123
e 70 125
e 70 127
e 70 128
e 70 130
e 70 131
e 70 134
e 70 135
e 70 137
e 70 138
e 70 140
e 70 141
e 70 143
e 70 144
e 70 145
e 70 151
e 70 152
e 70 154
e 70 155
e 70 159
e 70 161
e 70 162
e 70 163
e 70 164
e 70 165
e 70 171
e 70 172
e 70 174
e 70 175
e 70 176
e 70 179
e 70 180
e 70 181
e 70 184
e 70 187
e 70 188
e 70 190
e 70 192
e 70 194
e 70 195
e 70 199
e 70 204
e 70 205
e 70 208
e 70 210
e 70 212
e 70 213
e 70 214
e 70 215
e 70 216
e 70 217
e 70 219
e 70 220
e 70 221
e 70 224
e 70 225
e 70 226
e 70 227
e 70 231
e 70 232
e 70 234
e 70 238
e 70 240
e 70 241
e 70 242
e 70 244
e 70 245
e 70 248
e 70 249
e 71 72
e 71 75
e 71 81
e 71 82
e 71 83
e 71 89
e 71 90
e 71 91
e 71 102
e 71 103
e 71 106
e 71 109
e 71 110
e 71 111
e 71 118
e 71 121
e 71 122
e 71 127
e 71 129
e 71 130
e 71 132
e 71 133
e 71 134
e 71 135
e 71 142
e 71 143
e 71 144
e 71 146
e 71 149
e 71 151
e 71 152
e 71 155
e 71 156
e 71 157
e 71 158
e 71 159
e 71 160
e 71 162
e 71 164
e 71 165
e 71 167
e 71 171
e 71 172
e 71 173
e 71 176
e 71 177
e 71 178
e 71 179
e 71 182
e 71 183
e 71 185
e 71 188
e 71 190
e 71 192
e 71 194
e 71 195
e 71 196
e 71 197
e 71 199
e 71 206
e 71 209
e 71 210
e 71 212
e 71 213
e 71 215
e 71 217
e 71 218
e 71 219
e 71 222
e 71 223
e 71 226
e 71 227
e 71 230
e 71 231
e 71 234
e 71 236
e 71 237
e 71 239
e 71 243
e 71 244
e 71 246
e 71 249
e 72 73
e 72 77
e 72 78
e 72 80
e 72 87
e 72 88
e 72 90
e 72 92
e 72 93
e 72 96
e 72 99
e 72 102
e 72 104
e 72 106
e 72 108
e 72 111
e 72 112
e 72 114
e 72 116
e 72 117
e 72 118
e 72 122
e 72 124
e 72 125
e 72 126
e 72 127
e 72 129
e 72 130
e 72 132
e 72 140
e 72 141
e 72 143
e 72 144
e 72 151
e 72 152
e 72 153
e 72 154
e 72 155
e 72 157
e 72 158
e 72 159
e 72 160
e 72 163
e 72 164
e 72 166
e 72 168
e 72 169
e 72 172
e 72 173
e 72 174
e 72 176
e 72 179
e 72 182
e 72 184
e 72 186
e 72 187
e 72 188
e 72 189
e 72 194
e 72 197
e 72 198
e 72 200
e 72 202
e 72 206
e 72 212
e 72 214
e 72 215
e 72 219
e 72 220
e 72 221
e 72 222
e 72 223
e 72 224
e 72 225
e 72 226
e 72 233
e 72 237
e 72 238
e 72 239
e 72 240
e 72 242
e 72 243
e 72 246
e 72 248
e 73 75
e 73 76
e 73 82
e 73 83
e 73 84
e 73 85
e 73 92
e 73 95
e 73 96
e 73 97
e 73 100
e 73 103
e 73 104
e 73 106
e 73 107
e 73 111
e 73 115
e 73 118
e 73 121
e 73 122
e 73 127
e 73 130
e 73 131
e 73 132
e 73 136
e 73 139
e 73 142
e 73 145
e 73 146
e 73 147
e 73 148
e 73 149
e 73 151
e 73 152
e 73 154
e 73 160
e 73 161
e 73 164
e 73 167
e 73 172
e 73 173
e 73 176
e 73 177
e 73 178
e 73 183
e 73 184
e 73 185
e 73 189
e 73 191
e 73 193
e 73 194
e 73 196
e 73 197
e 73 200
e 73 203
e 73 204
e 73 208
e 73 211
e 73 212
e 73 214
e 73 215
e 73 216
e 73 218
e 73 227
e 73 229
e 73 231
e 73 233
e 73 235
e 73 237
e 73 239
e 73 243
e 73 245
e 73 246
e 73 247
e 73 248
e 73 249
e 74 76
e 74 80
e 74 83
e 74 84
e 74 85
e 74 86
e 74 88
e 74 89
e 74 91
e 74 93
e 74 95
e 74 96
e 74 98
e 74 100
e 74 102
e 74 105
e 74 106
e 74 107
e 74 108
e 74 109
e 74 110
e 74 112
e 74 115
e 74 116
e 74 118
e 74 119
e 74 121
e 74 123
e 74 124
e 74 126
e 74 127
e 74 129
e 74 130
e 74 134
e 74 137
e 74 139
e 74 140
e 74 141
e 74 143
e 74 145
e 74 147
e 74 148
e 74 149
e 74 152
e 74 153
e 74 154
e 74 156
e 74 157
e 74 158
e 74 161
e 74 162
e 74 163
e 74 164
e 74 166
e 74 167
e 74 168
e 74 173
e 74 175
e 74 176
e 74 179
e 74 182
e 74 187
e 74 190
e 74 191
e 74 194
e 74 195
e 74 196
e 74 197
e 74 199
e 74 200
e 74 201
e 74 202
e 74 209
e 74 210
e 74 215
e 74 219
e 74 220
e 74 221
e 74 222
e 74 225
e 74 226
e 74 227
e 74 231
e 74 235
e 74 236
e 74 238
e 74 245
e 74 246
e 74 247
e 74 249
e 75 79
e 75 82
e 75 83
e 75 84
e 75 90
e 75 94
e 75 97
e 75 99
e 75 102
e 75 104
e 75 105
e 75 106
e 75 107
e 75 113
e 75 117
e 75 118
e 75 119
e 75 122
e 75 127
e 75 129
e 75 130
e 75 131
e 75 134
e 75 138
e 75 140
e 75 141
e 75 142
e 75 146
e 75 147
e 75 148
e 75 149
e 75 150
e 75 154
e 75 156
e 75 159
e 75 163
e 75 164
e 75 166
e 75 168
e 75 169
e 75 174
e 75 176
e 75 177
e 75 178
e 75 179
e 75 180
e 75 182
e 75 186
e 75 187
e 75 188
e 75 191
e 75 195
e 75 202
e 75 203
e 75 209
e 75 211
e 75 213
e 75 214
e 75 215
e 75 216
e 75 218
e 75 219
e 75 220
e 75 221
e 75 223
e 75 224
e 75 225
e 75 226
e 75 228
e 75 229
e 75 235
e 75 245
e 75 248
e 75 249
e 75 250
e 76 77
e 76 78
e 76 81
e 76 82
e 76 84
e 76 85
e 76 86
e 76 90
e 76 91
e 76 95
e 76 96
e 76 97
e 76 98
e 76 99
e 76 100
e 76 101
e 76 105
e 76 106
e 76 107
e 76 110
e 76 111
e 76 113
e 76 115
e 76 119
e 76 120
e 76 122
e 76 123
e 76 129
e 76 131
e 76 132
e 76 134
e 76 135
e 76 138
e 76 143
e 76 144
e 76 147
e 76 148
e 76 149
e 76 151
e 76 152
e 76 153
e 76 154
e 76 155
e 76 156
e 76 157
e 76 160
e 76 161
e 76 163
e 76 165
e 76 168
e 76 171
e 76 172
e 76 178
e 76 179
e 76 180
e 76 182
e 76 184
e 76 186
e 76 187
e 76 191
e 76 195
e 76 196
e 76 197
e 76 200
e 76 201
e 76 206
e 76 208
e 76 209
e 76 210
e 76 211
e 76 217
e 76 221
e 76 222
e 76 223
e 76 225
e 76 226
e 76 227
e 76 228
e 76 229
e 76 230
e 76 231
e 76 234
e 76 238
e 76 239
e 76 244
e 76 245
e 76 246
e 76 249
e 77 79
e 77 80
e 77 81
e 77 85
e 77 87
e 77 90
e 77 91
e 77 92
e 77 93
e 77 94
e 77 98
e 77 99
e 77 100
e 77 104
e 77 105
e 77 106
e 77 107
e 77 110
e 77 111
e 77 112
e 77 114
e 77 118
e 77 119
e 77 120
e 77 122
e 77 123
e 77 124
e 77 125
e 77 126
e 77 127
e 77 130
e 77 132
e 77 133
e 77 137
e 77 139
e 77 140
e 77 141
e 77 142
e 77 143
e 77 148
e 77 150
e 77 151
e 77 152
e 77 156
e 77 157
e 77 158
e 77 159
e 77 160
e 77 162
e 77 163
e 77 165
e 77 167
e 77 168
e 77 169
e 77 170
e 77 174
e 77 180
e 77 181
e 77 183
e 77 184
e 77 185
e 77 186
e 77 194
e 77 195
e 77 197
e 77 198
e 77 200
e 77 202
e 77 203
e 77 204
e 77 207
e 77 208
e 77 209
e 77 210
e 77 212
e 77 214
e 77 215
e 77 216
e 77 218
e 77 220
e 77 224
e 77 227
e 77 228
e 77 229
e 77 230
e 77 231
e 77 233
e 77 234
e 77 236
e 77 242
e 77 244
e 77 245
e 77 246
e 77 249
e 78 80
e 78 81
e 78 82
e 78 85
e 78 87
e 78 88
e 78 90
e 78 91
e 78 95
e 78 97
e 78 100
e 78 101
e 78 103
e 78 104
e 78 106
e 78 107
e 78 108
e 78 110
e 78 117
e 78 118
e 78 119
e 78 120
e 78 122
e 78 127
e 78 129
e 78 131
e 78 134
e 78 137
e 78 138
e 78 139
e 78 141
e 78 142
e 78 145
e 78 149
e 78 152
e 78 155
e 78 156
e 78 158
e 78 161
e 78 163
e 78 167
e 78 168
e 78 169
e 78 171
e 78 173
e 78 174
e 78 175
e 78 179
e 78 183
e 78 185
e 78 186
e 78 187
e 78 188
e 78 191
e 78 192
e 78 193
e 78 195
e 78 196
e 78 197
e 78 207
e 78 208
e 78 209
e 78 210
e 78 211
e 78 212
e 78 215
e 78 216
e 78 217
e 78 220
e 78 223
e 78 224
e 78 225
e 78 227
e 78 229
e 78 231
e 78 232
e 78 233
e 78 234
e 78 237
e 78 238
e 78 241
e 78 243
e 78 247
e 78 248
e 79 81
e 79 83
e 79 85
e 79 86
e 79 88
e 79 89
e 79 94
e 79 95
e 79 96
e 79 97
e 79 99
e 79 101
e 79 102
e 79 103
e 79 107
e 79 108
e 79 109
e 79 110
e 79 112
e 79 113
e 79 114
e 79 115
e 79 118
e 79 121
e 79 123
e 79 124
e 79 126
e 79 127
e 79 128
e 79 131
e 79 133
e 79 134
e 79 135
e 79 136
e 79 139
e 79 140
e 79 141
e 79 144
e 79 145
e 79 146
e 79 147
e 79 151
e 79 152
e 79 154
e 79 155
e 79 156
e 79 159
e 79 160
e 79 162
e 79 163
e 79 164
e 79 165
e 79 166
e 79 170
e 79 172
e 79 173
e 79 174
e 79 177
e 79 183
e 79 184
e 79 185
e 79 187
e 79 189
e 79 191
e 79 194
e 79 195
e 79 197
e 79 207
e 79 208
e 79 209
e 79 211
e 79 216
e 79 217
e 79 219
e 79 220
e 79 221
e 79 223
e 79 224
e 79 231
e 79 232
e 79 233
e 79 237
e 79 239
e 79 244
e 79 247
e 79 249
e 80 81
e 80 83
e 80 85
e 80 86
e 80 88
e 80 89
e 80 91
e 80 93
e 80 94
e 80 96
e 80 103
e 80 104
e 80 105
e 80 109
e 80 114
e 80 115
e 80 116
e 80 117
e 80 120
e 80 123
e 80 125
e 80 126
e 80 128
e 80 129
e 80 130
e 80 134
e 80 135
e 80 137
e 80 140
e 80 141
e 80 143
e 80 144
e 80 148
e 80 149
e 80 150
e 80 152
e 80 156
e 80 157
e 80 158
e 80 160
e 80 166
e 80 168
e 80 170
e 80 171
e 80 177
e 80 178
e 80 179
e 80 181
e 80 186
e 80 187
e 80 191
e 80 192
e 80 194
e 80 196
e 80 198
e 80 199
e 80 200
e 80 202
e 80 205
e 80 207
e 80 208
e 80 209
e 80 211
e 80 212
e 80 214
e 80 215
e 80 216
e 80 220
e 80 221
e 80 224
e 80 226
e 80 227
e 80 228
e 80 229
e 80 230
e 80 232
e 80 234
e 80 235
e 80 236
e 80 237
e 80 239
e 80 240
e 80 242
e 80 244
e 80 246
e 80 247
e 80 248
e 81 84
e 81 86
e 81 87
e 81 88
e 81 93
e 81 94
e 81 95
e 81 96
e 81 99
e 81 100
e 81 102
e 81 103
e 81 106
e 81 107
e 81 110
e 81 111
e 81 112
e 81 114
e 81 115
e 81 117
e 81 118
e 81 123
e 81 125
e 81 127
e 81 129
e 81 130
e 81 131
e 81 139
e 81 140
e 81 147
e 81 151
e 81 153
e 81 155
e 81 157
e 81 158
e 81 160
e 81 162
e 81 164
e 81 165
e 81 167
e 81 168
e 81 171
e 81 172
e 81 173
e 81 174
e 81 175
e 81 178
e 81 180
e 81 181
e 81 184
e 81 186
e 81 189
e 81 190
e 81 191
e 81 192
e 81 193
e 81 196
e 81 198
e 81 200
e 81 203
e 81 206
e 81 208
e 81 210
e 81 211
e 81 213
e 81 214
e 81 216
e 81 218
e 81 219
e 81 221
e 81 222
e 81 223
e 81 225
e 81 227
e 81 229
e 81 230
e 81 233
e 81 234
e 81 235
e 81 237
e 81 238
e 81 240
e 81 241
e 81 243
e 81 245
e 81 247
e 81 248
e 81 249
e 82 83
e 82 85
e 82 87
e 82 89
e 82 90
e 82 91
e 82 92
e 82 97
e 82 98
e 82 99
e 82 100
e 82 104
e 82 106
e 82 110
e 82 116
e 82 117
e 82 118
e 82 121
e 82 125
e 82 134
e 82 135
e 82 139
e 82 140
e 82 146
e 82 147
e 82 148
e 82 151
e 82 152
e 82 156
e 82 157
e 82 158
e 82 160
e 82 162
e 82 163
e 82 164
e 82 165
e 82 166
e 82 167
e 82 168
e 82 170
e 82 171
e 82 174
e 82 175
e 82 177
e 82 178
e 82 179
e 82 181
e 82 182
e 82 184
e 82 185
e 82 186
e 82 188
e 82 189
e 82 191
e 82 193
e 82 196
e 82 199
e 82 213
e 82 214
e 82 220
e 82 221
e 82 225
e 82 226
e 82 228
e 82 229
e 82 230
e 82 232
e 82 233
e 82 234
e 82 239
e 82 242
e 82 244
e 82 245
e 82 246
e 82 248
e 82 250
e 83 88
e 83 89
e 83 92
e 83 96
e 83 97
e 83 99
e 83 100
e 83 102
e 83 104
e 83 105
e 83 106
e 83 108
e 83 111
e 83 116
e 83 119
e 83 120
e 83 121
e 83 127
e 83 128
e 83 129
e 83 133
e 83 134
e 83 135
e 83 137
e 83 139
e 83 141
e 83 142
e 83 143
e 83 145
e 83 146
e 83 147
e 83 148
e 83 152
e 83 153
e 83 155
e 83 158
e 83 163
e 83 164
e 83 166
e 83 169
e 83 170
e 83 173
e 83 174
e 83 178
e 83 179
e 83 180
e 83 184
e 83 185
e 83 190
e 83 191
e 83 192
e 83 196
e 83 197
e 83 198
e 83 200
e 83 201
e 83 207
e 83 208
e 83 212
e 83 213
e 83 214
e 83 217
e 83 218
e 83 219
e 83 222
e 83 223
e 83 224
e 83 225
e 83 226
e 83 229
e 83 231
e 83 233
e 83 235
e 83 237
e 83 239
e 83 240
e 83 241
e 83 242
e 83 243
e 83 248
e 83 249
e 84 85
e 84 90
e 84 92
e 84 93
e 84 94
e 84 96
e 84 98
e 84 99
e 84 103
e 84 104
e 84 105
e 84 106
e 84 107
e 84 109
e 84 110
e 84 111
e 84 114
e 84 115
e 84 117
e 84 118
e 84 120
e 84 121
e 84 123
e 84 128
e 84 129
e 84 132
e 84 133
e 84 136
e 84 137
e 84 139
e 84 150
e 84 152
e 84 153
e 84 161
e 84 162
e 84 163
e 84 167
e 84 168
e 84 170
e 84 172
e 84 173
e 84 177
e 84 180
e 84 187
e 84 188
e 84 189
e 84 190
e 84 191
e 84 193
e 84 194
e 84 197
e 84 202
e 84 203
e 84 204
e 84 205
e 84 206
e 84 208
e 84 211
e 84 213
e 84 216
e 84 217
e 84 218
e 84 219
e 84 220
e 84 221
e 84 223
e 84 224
e 84 227
e 84 234
e 84 237
e 84 238
e 84 242
e 84 243
e 84 244
e 84 245
e 84 247
e 84 249
e 85 86
e 85 88
e 85 90
e 85 91
e 85 93
e 85 97
e 85 98
e 85 100
e 85 102
e 85 104
e 85 105
e 85 106
e 85 107
e 85 108
e 85 109
e 85 110
e 85 112
e 85 113
e 85 114
e 85 118
e 85 120
e 85 123
e 85 125
e 85 128
e 85 129
e 85 130
e 85 133
e 85 135
e 85 136
e 85 137
e 85 139
e 85 142
e 85 143
e 85 146
e 85 149
e 85 150
e 85 151
e 85 152
e 85 153
e 85 154
e 85 155
e 85 156
e 85 159
e 85 163
e 85 165
e 85 168
e 85 169
e 85 177
e 85 178
e 85 180
e 85 181
e 85 182
e 85 183
e 85 184
e 85 187
e 85 191
e 85 192
e 85 193
e 85 195
e 85 198
e 85 199
e 85 200
e 85 201
e 85 205
e 85 206
e 85 209
e 85 214
e 85 215
e 85 217
e 85 221
e 85 222
e 85 224
e 85 226
e 85 230
e 85 231
e 85 234
e 85 235
e 85 237
e 85 240
e 85 241
e 85 243
e 85 247
e 86 90
e 86 91
e 86 93
e 86 96
e 86 97
e 86 98
e 86 102
e 86 104
e 86 105
e 86 107
e 86 110
e 86 111
e 86 113
e 86 115
e 86 116
e 86 118
e 86 123
e 86 124
e 86 125
e 86 127
e 86 128
e 86 130
e 86 131
e 86 132
e 86 134
e 86 136
e 86 139
e 86 140
e 86 141
e 86 145
e 86 148
e 86 150
e 86 151
e 86 153
e 86 157
e 86 158
e 86 159
e 86 160
e 86 161
e 86 162
e 86 163
e 86 164
e 86 165
e 86 166
e 86 171
e 86 172
e 86 173
e 86 174
e 86 175
e 86 176
e 86 177
e 86 179
e 86 180
e 86 182
e 86 183
e 86 185
e 86 188
e 86 190
e 86 191
e 86 195
e 86 196
e 86 197
e 86 201
e 86 203
e 86 206
e 86 207
e 86 210
e 86 211
e 86 215
e 86 216
e 86 217
e 86 218
e 86 220
e 86 221
e 86 225
e 86 227
e 86 229
e 86 231
e 86 232
e 86 235
e 86 237
e 86 238
e 86 239
e 86 241
e 86 243
e 86 244
e 86 245
e 86 247
e 86 248
e 86 250
e 87 88
e 87 91
e 87 92
e 87 95
e 87 97
e 87 98
e 87 100
e 87 102
e 87 103
e 87 104
e 87 107
e 87 109
e 87 110
e 87 111
e 87 115
e 87 119
e 87 123
e 87 124
e 87 126
e 87 127
e 87 128
e 87 130
e 87 135
e 87 136
e 87 137
e 87 141
e 87 144
e 87 145
e 87 148
e 87 150
e 87 152
e 87 153
e 87 155
e 87 156
e 87 163
e 87 164
e 87 168
e 87 172
e 87 176
e 87 177
e 87 181
e 87 182
e 87 184
e 87 186
e 87 187
e 87 188
e 87 190
e 87 191
e 87 192
e 87 197
e 87 198
e 87 201
e 87 202
e 87 210
e 87 211
e 87 212
e 87 214
e 87 219
e 87 222
e 87 223
e 87 228
e 87 229
e 87 231
e 87 236
e 87 237
e 87 239
e 87 240
e 87 248
e 88 91
e 88 97
e 88 99
e 88 101
e 88 102
e 88 104
e 88 106
e 88 107
e 88 108
e 88 109
e 88 116
e 88 118
e 88 121
e 88 122
e 88 123
e 88 125
e 88 128
e 88 129
e 88 133
e 88 134
e 88 137
e 88 140
e 88 141
e 88 145
e 88 147
e 88 149
e 88 152
e 88 153
e 88 154
e 88 157
e 88 159
e 88 160
e 88 161
e 88 162
e 88 163
e 88 164
e 88 166
e 88 167
e 88 170
e 88 172
e 88 173
e 88 174
e 88 178
e 88 179
e 88 180
e 88 181
e 88 182
e 88 183
e 88 185
e 88 188
e 88 189
e 88 193
e 88 194
e 88 195
e 88 199
e 88 202
e 88 204
e 88 206
e 88 207
e 88 209
e 88 210
e 88 211
e 88 212
e 88 213
e 88 214
e 88 215
e 88 220
e 88 222
e 88 224
e 88 225
e 88 226
e 88 228
e 88 233
e 88 234
e 88 237
e 88 238
e 88 239
e 88 240
e 88 241
e 88 242
e 88 243
e 88 247
e 88 250
e 89 90
e 89 93
e 89 94
e 89 99
e 89 102
e 89 103
e 89 105
e 89 106
e 89 107
e 89 108
e 89 110
e 89 112
e 89 113
e 89 115
e 89 116
e 89 117
e 89 118
e 89 120
e 89 121
e 89 126
e 89 127
e 89 129
e 89 130
e 89 131
e 89 132
e 89 135
e 89 137
e 89 139
e 89 140
e 89 142
e 89 144
e 89 146
e 89 147
e 89 148
e 89 149
e 89 150
e 89 151
e 89 152
e 89 153
e 89 154
e 89 161
e 89 163
e 89 165
e 89 166
e 89 175
e 89 176
e 89 179
e 89 180
e 89 184
e 89 189
e 89 190
e 89 191
e 89 192
e 89 197
e 89 201
e 89 202
e 89 205
e 89 206
e 89 210
e 89 211
e 89 212
e 89 213
e 89 216
e 89 217
e 89 219
e 89 221
e 89 222
e 89 223
e 89 227
e 89 229
e 89 230
e 89 232
e 89 233
e 89 236
e 89 237
e 89 239
e 89 241
e 89 244
e 89 246
e 89 249
e 89 250
e 90 91
e 90 93
e 90 94
e 90 96
e 90 97
e 90 99
e 90 102
e 90 104
e 90 107
e 90 109
e 90 110
e 90 116
e 90 117
e 90 118
e 90 119
e 90 120
e 90 122
e 90 123
e 90 126
e 90 127
e 90 129
e 90 130
e 90 131
e 90 133
e 90 134
e 90 135
e 90 136
e 90 139
e 90 140
e 90 143
e 90 145
e 90 146
e 90 149
e 90 150
e 90 151
e 90 152
e 90 154
e 90 155
e 90 157
e 90 158
e 90 161
e 90 162
e 90 163
e 90 165
e 90 168
e 90 173
e 90 174
e 90 184
e 90 185
e 90 188
e 90 190
e 90 192
e 90 194
e 90 195
e 90 200
e 90 203
e 90 204
e 90 206
e 90 207
e 90 210
e 90 211
e 90 213
e 90 215
e 90 216
e 90 217
e 90 218
e 90 219
e 90 226
e 90 229
e 90 230
e 90 232
e 90 234
e 90 237
e 90 238
e 90 242
e 90 243
e 90 246
e 90 247
e 90 248
e 91 94
e 91 95
e 91 98
e 91 101
e 91 103
e 91 104
e 91 114
e 91 117
e 91 121
e 91 123
e 91 124
e 91 126
e 91 128
e 91 132
e 91 134
e 91 136
e 91 137
e 91 138
e 91 139
e 91 142
e 91 143
e 91 146
e 91 147
e 91 149
e 91 153
e 91 154
e 91 158
e 91 159
e 91 161
e 91 162
e 91 163
e 91 164
e 91 165
e 91 166
e 91 167
e 91 168
e 91 171
e 91 174
e 91 175
e 91 178
e 91 180
e 91 182
e 91 183
e 91 184
e 91 186
e 91 187
e 91 188
e 91 189
e 91 190
e 91 191
e 91 192
e 91 193
e 91 195
e 91 198
e 91 199
e 91 202
e 91 205
e 91 207
e 91 209
e 91 210
e 91 212
e 91 213
e 91 216
e 91 218
e 91 219
e 91 220
e 91 221
e 91 223
e 91 226
e 91 227
e 91 235
e 91 236
e 91 238
e 91 239
e 91 241
e 91 243
e 91 244
e 91 245
e 91 246
e 91 248
e 92 93
e 92 94
e 92 95
e 92 99
e 92 100
e 92 102
e 92 104
e 92 108
e 92 110
e 92 111
e 92 113
e 92 116
e 92 117
e 92 118
e 92 121
e 92 122
e 92 125
e 92 128
e 92 130
e 92 136
e 92 140
e 92 143
e 92 144
e 92 145
e 92 147
e 92 150
e 92 153
e 92 156
e 92 158
e 92 162
e 92 168
e 92 171
e 92 173
e 92 174
e 92 176
e 92 178
e 92 179
e 92 184
e 92 187
e 92 188
e 92 189
e 92 193
e 92 196
e 92 200
e 92 204
e 92 206
e 92 210
e 92 212
e 92 214
e 92 215
e 92 218
e 92 219
e 92 222
e 92 225
e 92 226
e 92 229
e 92 231
e 92 232
e 92 233
e 92 234
e 92 236
e 92 238
e 92 240
e 92 242
e 92 243
e 92 244
e 92 245
e 92 246
e 92 249
e 92 250
e 93 95
e 93 96
e 93 97
e 93 98
e 93 100
e 93 102
e 93 103
e 93 104
e 93 106
e 93 110
e 93 112
e 93 113
e 93 115
e 93 117
e 93 118
e 93 119
e 93 120
e 93 122
e 93 123
e 93 124
e 93 126
e 93 127
e 93 131
e 93 132
e 93 133
e 93 134
e 93 136
e 93 138
e 93 139
e 93 146
e 93 147
e 93 148
e 93 149
e 93 150
e 93 155
e 93 159
e 93 160
e 93 170
e 93 172
e 93 173
e 93 177
e 93 179
e 93 180
e 93 181
e 93 182
e 93 184
e 93 185
e 93 186
e 93 190
e 93 197
e 93 198
e 93 200
e 93 201
e 93 204
e 93 209
e 93 213
e 93 215
e 93 216
e 93 219
e 93 222
e 93 223
e 93 224
e 93 225
e 93 227
e 93 228
e 93 230
e 93 232
e 93 233
e 93 234
e 93 238
e 93 239
e 93 241
e 93 245
e 93 247
e 93 249
e 93 250
e 94 95
e 94 96
e 94 99
e 94 100
e 94 101
e 94 103
e 94 105
e 94 106
e 94 109
e 94 110
e 94 111
e 94 114
e 94 117
e 94 118
e 94 120
e 94 123
e 94 124
e 94 125
e 94 127
e 94 130
e 94 132
e 94 133
e 94 134
e 94 136
e 94 137
e 94 141
e 94 142
e 94 144
e 94 145
e 94 146
e 94 150
e 94 151
e 94 152
e 94 156
e 94 157
e 94 159
e 94 161
e 94 162
e 94 163
e 94 166
e 94 167
e 94 168
e 94 169
e 94 170
e 94 172
e 94 173
e 94 175
e 94 176
e 94 178
e 94 181
e 94 183
e 94 185
e 94 189
e 94 190
e 94 192
e 94 194
e 94 195
e 94 196
e 94 197
e 94 205
e 94 209
e 94 212
e 94 213
e 94 214
e 94 217
e 94 218
e 94 219
e 94 220
e 94 225
e 94 226
e 94 227
e 94 228
e 94 230
e 94 231
e 94 232
e 94 239
e 94 240
e 94 242
e 94 243
e 94 245
e 94 247
e 94 249
e 94 250
e 95 97
e 95 99
e 95 100
e 95 101
e 95 103
e 95 104
e 95 105
e 95 107
e 95 109
e 95 111
e 95 116
e 95 117
e 95 118
e 95 119
e 95 120
e 95 122
e 95 124
e 95 125
e 95 126
e 95 127
e 95 128
e 95 129
e 95 131
e 95 132
e 95 133
e 95 134
e 95 136
e 95 139
e 95 145
e 95 146
e 95 148
e 95 149
e 95 150
e 95 152
e 95 155
e 95 156
e 95 157
e 95 161
e 95 162
e 95 163
e 95 167
e 95 168
e 95 169
e 95 170
e 95 171
e 95 173
e 95 174
e 95 176
e 95 178
e 95 179
e 95 181
e 95 186
e 95 191
e 95 197
e 95 198
e 95 199
e 95 208
e 95 209
e 95 210
e 95 214
e 95 215
e 95 217
e 95 222
e 95 224
e 95 225
e 95 227
e 95 228
e 95 229
e 95 230
e 95 231
e 95 233
e 95 234
e 95 236
e 95 237
e 95 240
e 95 242
e 95 243
e 95 248
e 95 249
e 95 250
e 96 101
e 96 102
e 96 103
e 96 105
e 96 106
e 96 110
e 96 114
e 96 116
e 96 117
e 96 120
e 96 121
e 96 123
e 96 124
e 96 125
e 96 127
e 96 129
e 96 130
e 96 131
e 96 135
e 96 136
e 96 138
e 96 143
e 96 144
e 96 145
e 96 148
e 96 149
e 96 150
e 96 151
e 96 153
e 96 154
e 96 155
e 96 156
e 96 157
e 96 159
e 96 160
e 96 161
e 96 162
e 96 163
e 96 165
e 96 166
e 96 167
e 96 168
e 96 169
e 96 170
e 96 173
e 96 175
e 96 177
e 96 178
e 96 179
e 96 180
e 96 182
e 96 183
e 96 188
e 96 193
e 96 194
e 96 195
e 96 198
e 96 199
e 96 202
e 96 203
e 96 205
e 96 207
e 96 208
e 96 211
e 96 212
e 96 213
e 96 223
e 96 224
e 96 225
e 96 229
e 96 230
e 96 237
e 96 242
e 96 245
e 96 247
e 96 248
e 96 249
e 97 99
e 97 101
e 97 103
e 97 105
e 97 107
e 97 109
e 97 112
e 97 116
e 97 120
e 97 123
e 97 125
e 97 134
e 97 135
e 97 137
e 97 138
e 97 140
e 97 144
e 97 145
e 97 148
e 97 151
e 97 153
e 97 154
e 97 159
e 97 160
e 97 164
e 97 166
e 97 167
e 97 168
e 97 169
e 97 171
e 97 172
e 97 174
e 97 175
e 97 176
e 97 178
e 97 179
e 97 180
e 97 181
e 97 184
e 97 185
e 97 189
e 97 190
e 97 191
e 97 192
e 97 194
e 97 195
e 97 196
e 97 197
e 97 200
e 97 202
e 97 204
e 97 205
e 97 210
e 97 211
e 97 212
e 97 213
e 97 214
e 97 215
e 97 219
e 97 221
e 97 223
e 97 224
e 97 225
e 97 229
e 97 233
e 97 235
e 97 236
e 97 237
e 97 239
e 97 240
e 97 241
e 97 249
e 97 250
e 98 99
e 98 104
e 98 107
e 98 108
e 98 109
e 98 110
e 98 114
e 98 115
e 98 116
e 98 117
e 98 118
e 98 120
e 98 121
e 98 124
e 98 125
e 98 128
e 98 130
e 98 132
e 98 133
e 98 136
e 98 139
e 98 145
e 98 147
e 98 148
e 98 149
e 98 151
e 98 152
e 98 154
e 98 155
e 98 156
e 98 157
e 98 159
e 98 161
e 98 163
e 98 164
e 98 165
e 98 167
e 98 169
e 98 173
e 98 174
e 98 175
e 98 176
e 98 180
e 98 181
e 98 182
e 98 186
e 98 193
e 98 200
e 98 201
e 98 203
e 98 205
e 98 210
e 98 212
e 98 213
e 98 214
e 98 219
e 98 223
e 98 224
e 98 225
e 98 227
e 98 229
e 98 233
e 98 235
e 98 236
e 98 238
e 98 241
e 98 243
e 98 244
e 98 246
e 98 248
e 98 249
e 98 250
e 99 100
e 99 103
e 99 105
e 99 117
e 99 118
e 99 120
e 99 122
e 99 123
e 99 124
e 99 125
e 99 126
e 99 128
e 99 130
e 99 131
e 99 132
e 99 133
e 99 134
e 99 136
e 99 143
e 99 144
e 99 145
e 99 147
e 99 151
e 99 153
e 99 156
e 99 159
e 99 160
e 99 161
e 99 163
e 99 166
e 99 170
e 99 172
e 99 173
e 99 174
e 99 175
e 99 177
e 99 178
e 99 180
e 99 181
e 99 182
e 99 183
e 99 184
e 99 186
e 99 187
e 99 188
e 99 192
e 99 195
e 99 199
e 99 200
e 99 201
e 99 207
e 99 211
e 99 213
e 99 214
e 99 215
e 99 216
e 99 218
e 99 219
e 99 220
e 99 223
e 99 224
e 99 225
e 99 227
e 99 228
e 99 232
e 99 234
e 99 235
e 99 236
e 99 240
e 99 244
e 99 246
e 99 247
e 99 248
e 100 103
e 100 108
e 100 110
e 100 111
e 100 112
e 100 115
e 100 117
e 100 120
e 100 121
e 100 124
e 100 126
e 100 129
e 100 130
e 100 132
e 100 134
e 100 135
e 100 137
e 100 139
e 100 140
e 100 141
e 100 144
e 100 146
e 100 147
e 100 150
e 100 151
e 100 155
e 100 158
e 100 159
e 100 161
e 100 162
e 100 165
e 100 167
e 100 169
e 100 171
e 100 174
e 100 175
e 100 179
e 100 183
e 100 185
e 100 189
e 100 193
e 100 198
e 100 201
e 100 203
e 100 205
e 100 206
e 100 209
e 100 214
e 100 216
e 100 219
e 100 220
e 100 221
e 100 222
e 100 223
e 100 224
e 100 227
e 100 232
e 100 235
e 100 240
e 100 244
e 100 247
e 100 248
e 101 104
e 101 107
e 101 108
e 101 111
e 101 112
e 101 115
e 101 119
e 101 120
e 101 121
e 101 123
e 101 128
e 101 131
e 101 134
e 101 137
e 101 139
e 101 142
e 101 144
e 101 146
e 101 147
e 101 148
e 101 149
e 101 150
e 101 152
e 101 160
e 101 161
e 101 162
e 101 163
e 101 164
e 101 165
e 101 166
e 101 167
e 101 168
e 101 171
e 101 172
e 101 173
e 101 174
e 101 176
e 101 177
e 101 178
e 101 180
e 101 181
e 101 183
e 101 184
e 101 185
e 101 187
e 101 190
e 101 191
e 101 194
e 101 195
e 101 198
e 101 199
e 101 200
e 101 201
e 101 203
e 101 205
e 101 206
e 101 207
e 101 208
e 101 211
e 101 212
e 101 215
e 101 216
e 101 217
e 101 218
e 101 220
e 101 222
e 101 223
e 101 225
e 101 226
e 101 228
e 101 229
e 101 230
e 101 231
e 101 232
e 101 233
e 101 234
e 101 237
e 101 239
e 101 240
e 101 243
e 101 245
e 101 246
e 101 247
e 101 249
e 101 250
e 102 104
e 102 105
e 102 106
e 102 108
e 102 109
e 102 110
e 102 111
e 102 113
e 102 117
e 102 119
e 102 120
e 102 121
e 102 123
e 102 124
e 102 125
e 102 126
e 102 131
e 102 132
e 102 136
e 102 137
e 102 139
e 102 142
e 102 143
e 102 144
e 102 145
e 102 146
e 102 148
e 102 149
e 102 150
e 102 151
e 102 154
e 102 155
e 102 160
e 102 163
e 102 164
e 102 165
e 102 168
e 102 170
e 102 171
e 102 172
e 102 176
e 102 177
e 102 178
e 102 181
e 102 182
e 102 187
e 102 192
e 102 196
e 102 197
e 102 198
e 102 205
e 102 206
e 102 207
e 102 208
e 102 212
e 102 215
e 102 218
e 102 219
e 102 220
e 102 225
e 102 226
e 102 227
e 102 228
e 102 229
e 102 231
e 102 232
e 102 233
e 102 237
e 102 238
e 102 239
e 102 240
e 102 241
e 102 245
e 102 246
e 102 247
e 102 249
e 103 105
e 103 106
e 103 107
e 103 108
e 103 111
e 103 112
e 103 114
e 103 117
e 103 118
e 103 120
e 103 121
e 103 123
e 103 124
e 103 126
e 103 127
e 103 131
e 103 135
e 103 136
e 103 138
e 103 139
e 103 141
e 103 144
e 103 146
e 103 147
e 103 148
e 103 152
e 103 153
e 103 154
e 103 155
e 103 156
e 103 159
e 103 163
e 103 164
e 103 165
e 103 167
e 103 168
e 103 171
e 103 172
e 103 173
e 103 174
e 103 176
e 103 179
e 103 180
e 103 183
e 103 184
e 103 186
e 103 187
e 103 191
e 103 195
e 103 200
e 103 203
e 103 204
e 103 205
e 103 206
e 103 207
e 103 210
e 103 214
e 103 215
e 103 216
e 103 217
e 103 222
e 103 224
e 103 227
e 103 228
e 103 230
e 103 231
e 103 232
e 103 233
e 103 234
e 103 238
e 103 239
e 103 246
e 103 247
e 103 248
e 103 250
e 104 106
e 104 108
e 104 111
e 104 115
e 104 116
e 104 117
e 104 118
e 104 120
e 104 122
e 104 123
e 104 124
e 104 125
e 104 128
e 104 129
e 104 131
e 104 133
e 104 134
e 104 136
e 104 137
e 104 138
e 104 139
e 104 140
e 104 141
e 104 144
e 104 145
e 104 146
e 104 147
e 104 148
e 104 149
e 104 150
e 104 151
e 104 152
e 104 153
e 104 156
e 104 158
e 104 160
e 104 161
e 104 165
e 104 166
e 104 169
e 104 170
e 104 171
e 104 172
e 104 175
e 104 176
e 104 177
e 104 178
e 104 179
e 104 181
e 104 183
e 104 184
e 104 185
e 104 186
e 104 187
e 104 189
e 104 191
e 104 192
e 104 193
e 104 198
e 104 200
e 104 201
e 104 202
e 104 203
e 104 204
e 104 206
e 104 208
e 104 209
e 104 210
e 104 212
e 104 216
e 104 217
e 104 218
e 104 220
e 104 221
e 104 222
e 104 223
e 104 224
e 104 230
e 104 231
e 104 232
e 104 235
e 104 237
e 104 240
e 104 241
e 104 242
e 104 246
e 104 248
e 104 249
e 104 250
e 105 109
e 105 112
e 105 113
e 105 115
e 105 116
e 105 119
e 105 123
e 105 124
e 105 125
e 105 126
e 105 127
e 105 128
e 105 133
e 105 137
e 105 139
e 105 140
e 105 141
e 105 143
e 105 144
e 105 145
e 105 146
e 105 148
e 105 151
e 105 152
e 105 153
e 105 154
e 105 155
e 105 156
e 105 159
e 105 160
e 105 162
e 105 164
e 105 166
e 105 167
e 105 174
e 105 176
e 105 177
e 105 178
e 105 180
e 105 181
e 105 185
e 105 187
e 105 189
e 105 192
e 105 194
e 105 196
e 105 198
e 105 199
e 105 201
e 105 204
e 105 205
e 105 207
e 105 211
e 105 212
e 105 214
e 105 217
e 105 220
e 105 221
e 105 223
e 105 227
e 105 228
e 105 229
e 105 234
e 105 235
e 105 236
e 105 238
e 105 239
e 105 241
e 105 242
e 105 243
e 105 247
e 105 248
e 106 108
e 106 111
e 106 112
e 106 114
e 106 115
e 106 117
e 106 119
e 106 123
e 106 125
e 106 127
e 106 132
e 106 133
e 106 134
e 106 138
e 106 140
e 106 142
e 106 145
e 106 148
e 106 153
e 106 156
e 106 159
e 106 162
e 106 163
e 106 164
e 106 166
e 106 167
e 106 172
e 106 173
e 106 174
e 106 178
e 106 181
e 106 182
e 106 183
e 106 185
e 106 186
e 106 187
e 106 188
e 106 194
e 106 196
e 106 197
e 106 200
e 106 204
e 106 205
e 106 206
e 106 207
e 106 209
e 106 210
e 106 212
e 106 214
e 106 220
e 106 221
e 106 224
e 106 225
e 106 227
e 106 230
e 106 231
e 106 235
e 106 236
e 106 237
e 106 239
e 106 240
e 106 241
e 106 242
e 106 243
e 106 246
e 106 247
e 106 250
e 107 110
e 107 113
e 107 115
e 107 117
e 107 118
e 107 120
e 107 121
e 107 123
e 107 124
e 107 127
e 107 129
e 107 131
e 107 132
e 107 133
e 107 134
e 107 135
e 107 137
e 107 138
e 107 140
e 107 141
e 107 144
e 107 146
e 107 150
e 107 153
e 107 154
e 107 155
e 107 156
e 107 159
e 107 161
e 107 164
e 107 168
e 107 170
e 107 174
e 107 175
e 107 177
e 107 179
e 107 182
e 107 183
e 107 185
e 107 186
e 107 188
e 107 193
e 107 195
e 107 198
e 107 199
e 107 201
e 107 202
e 107 206
e 107 207
e 107 209
e 107 211
e 107 214
e 107 215
e 107 219
e 107 220
e 107 221
e 107 222
e 107 223
e 107 224
e 107 226
e 107 228
e 107 229
e 107 231
e 107 232
e 107 233
e 107 234
e 107 235
e 107 236
e 107 238
e 107 239
e 107 240
e 107 241
e 107 242
e 107 247
e 107 248
e 108 109
e 108 110
e 108 112
e 108 113
e 108 114
e 108 116
e 108 120
e 108 121
e 108 122
e 108 123
e 108 126
e 108 127
e 108 132
e 108 135
e 108 136
e 108 137
e 108 138
e 108 140
e 108 142
e 108 143
e 108 146
e 108 147
e 108 148
e 108 149
e 108 150
e 108 151
e 108 152
e 108 154
e 108 155
e 108 156
e 108 157
e 108 158
e 108 160
e 108 166
e 108 167
e 108 168
e 108 170
e 108 172
e 108 174
e 108 176
e 108 177
e 108 178
e 108 180
e 108 181
e 108 183
e 108 185
e 108 186
e 108 188
e 108 190
e 108 194
e 108 198
e 108 200
e 108 202
e 108 203
e 108 204
e 108 206
e 108 207
e 108 210
e 108 212
e 108 216
e 108 217
e 108 218
e 108 219
e 108 221
e 108 222
e 108 223
e 108 225
e 108 226
e 108 228
e 108 229
e 108 230
e 108 231
e 108 232
e 108 237
e 108 238
e 108 239
e 108 240
e 108 241
e 108 248
e 108 249
e 108 250
e 109 110
e 109 111
e 109 113
e 109 115
e 109 116
e 109 120
e 109 123
e 109 124
e 109 125
e 109 126
e 109 127
e 109 130
e 109 141
e 109 143
e 109 144
e 109 145
e 109 148
e 109 152
e 109 157
e 109 158
e 109 160
e 109 161
e 109 163
e 109 167
e 109 169
e 109 175
e 109 179
e 109 180
e 109 182
e 109 188
e 109 189
e 109 192
e 109 196
e 109 197
e 109 198
e 109 200
e 109 202
e 109 207
e 109 208
e 109 209
e 109 211
e 109 212
e 109 213
e 109 215
e 109 216
e 109 217
e 109 218
e 109 219
e 109 221
e 109 223
e 109 226
e 109 230
e 109 234
e 109 235
e 109 237
e 109 240
e 109 242
e 109 243
e 109 244
e 109 245
e 109 247
e 109 248
e 109 249
e 110 111
e 110 113
e 110 117
e 110 120
e 110 121
e 110 122
e 110 123
e 110 126
e 110 130
e 110 131
e 110 133
e 110 134
e 110 135
e 110 137
e 110 140
e 110 141
e 110 146
e 110 149
e 110 152
e 110 157
e 110 158
e 110 164
e 110 166
e 110 167
e 110 169
e 110 170
e 110 171
e 110 172
e 110 174
e 110 175
e 110 176
e 110 178
e 110 179
e 110 183
e 110 186
e 110 188
e 110 191
e 110 192
e 110 199
e 110 200
e 110 201
e 110 204
e 110 206
e 110 209
e 110 210
e 110 214
e 110 217
e 110 218
e 110 221
e 110 222
e 110 223
e 110 224
e 110 225
e 110 227
e 110 228
e 110 229
e 110 231
e 110 232
e 110 238
e 110 240
e 110 249
e 111 113
e 111 115
e 111 117
e 111 119
e 111 120
e 111 125
e 111 129
e 111 132
e 111 133
e 111 134
e 111 136
e 111 139
e 111 141
e 111 142
e 111 143
e 111 146
e 111 149
e 111 150
e 111 152
e 111 153
e 111 161
e 111 162
e 111 163
e 111 164
e 111 165
e 111 169
e 111 176
e 111 181
e 111 184
e 111 187
e 111 190
e 111 193
e 111 194
e 111 196
e 111 197
e 111 198
e 111 199
e 111 201
e 111 205
e 111 210
e 111 212
e 111 216
e 111 217
e 111 222
e 111 223
e 111 224
e 111 226
e 111 228
e 111 229
e 111 230
e 111 232
e 111 233
e 111 234
e 111 237
e 111 239
e 111 240
e 111 241
e 111 245
e 111 249
e 111 250
e 112 113
e 112 114
e 112 115
e 112 120
e 112 122
e 112 123
e 112 124
e 112 126
e 112 127
e 112 128
e 112 130
e 112 131
e 112 141
e 112 142
e 112 145
e 112 146
e 112 148
e 112 149
e 112 154
e 112 156
e 112 158
e 112 160
e 112 161
e 112 162
e 112 163
e 112 164
e 112 165
e 112 166
e 112 167
e 112 168
e 112 169
e 112 170
e 112 171
e 112 172
e 112 173
e 112 176
e 112 178
e 112 179
e 112 180
e 112 182
e 112 183
e 112 184
e 112 185
e 112 188
e 112 194
e 112 195
e 112 196
e 112 198
e 112 200
e 112 201
e 112 210
e 112 211
e 112 212
e 112 213
e 112 216
e 112 217
e 112 218
e 112 220
e 112 221
e 112 223
e 112 225
e 112 230
e 112 231
e 112 232
e 112 234
e 112 235
e 112 238
e 112 240
e 112 241
e 112 242
e 112 243
e 112 245
e 112 246
e 112 247
e 112 248
e 112 250
e 113 115
e 113 116
e 113 119
e 113 121
e 113 122
e 113 124
e 113 126
e 113 128
e 113 129
e 113 130
e 113 132
e 113 133
e 113 135
e 113 137
e 113 138
e 113 139
e 113 140
e 113 145
e 113 146
e 113 148
e 113 149
e 113 151
e 113 154
e 113 156
e 113 158
e 113 159
e 113 162
e 113 163
e 113 164
e 113 167
e 113 169
e 113 171
e 113 172
e 113 174
e 113 177
e 113 178
e 113 179
e 113 182
e 113 184
e 113 186
e 113 188
e 113 189
e 113 190
e 113 191
e 113 193
e 113 195
e 113 196
e 113 198
e 113 204
e 113 205
e 113 210
e 113 211
e 113 212
e 113 214
e 113 222
e 113 224
e 113 226
e 113 227
e 113 229
e 113 230
e 113 232
e 113 234
e 113 235
e 113 243
e 113 245
e 113 246
e 113 247
e 113 248
e 113 249
e 114 116
e 114 117
e 114 121
e 114 122
e 114 123
e 114 124
e 114 125
e 114 126
e 114 127
e 114 128
e 114 129
e 114 130
e 114 131
e 114 132
e 114 136
e 114 137
e 114 140
e 114 141
e 114 142
e 114 143
e 114 144
e 114 145
e 114 146
e 114 147
e 114 148
e 114 149
e 114 150
e 114 154
e 114 155
e 114 157
e 114 161
e 114 164
e 114 165
e 114 168
e 114 169
e 114 170
e 114 171
e 114 173
e 114 176
e 114 177
e 114 179
e 114 181
e 114 184
e 114 189
e 114 190
e 114 197
e 114 199
e 114 203
e 114 205
e 114 208
e 114 210
e 114 212
e 114 215
e 114 216
e 114 218
e 114 219
e 114 221
e 114 223
e 114 224
e 114 227
e 114 228
e 114 229
e 114 231
e 114 232
e 114 233
e 114 236
e 114 239
e 114 242
e 114 245
e 114 247
e 115 116
e 115 117
e 115 118
e 115 119
e 115 120
e 115 121
e 115 123
e 115 125
e 115 130
e 115 132
e 115 134
e 115 135
e 115 137
e 115 138
e 115 139
e 115 140
e 115 141
e 115 142
e 115 143
e 115 144
e 115 147
e 115 150
e 115 152
e 115 153
e 115 154
e 115 155
e 115 159
e 115 166
e 115 167
e 115 168
e 115 169
e 115 170
e 115 172
e 115 177
e 115 180
e 115 185
e 115 186
e 115 193
e 115 198
e 115 200
e 115 201
e 115 203
e 115 205
e 115 207
e 115 208
e 115 209
e 115 210
e 115 211
e 115 213
e 115 214
e 115 215
e 115 216
e 115 217
e 115 218
e 115 219
e 115 220
e 115 223
e 115 227
e 115 228
e 115 229
e 115 231
e 115 235
e 115 238
e 115 239
e 115 242
e 115 244
e 115 245
e 115 250
e 116 118
e 116 119
e 116 122
e 116 123
e 116 124
e 116 125
e 116 127
e 116 128
e 116 129
e 116 137
e 116 138
e 116 139
e 116 143
e 116 146
e 116 148
e 116 150
e 116 155
e 116 158
e 116 159
e 116 161
e 116 163
e 116 165
e 116 166
e 116 167
e 116 169
e 116 170
e 116 172
e 116 175
e 116 176
e 116 177
e 116 179
e 116 180
e 116 181
e 116 184
e 116 185
e 116 189
e 116 192
e 116 195
e 116 196
e 116 197
e 116 199
e 116 200
e 116 201
e 116 202
e 116 203
e 116 204
e 116 205
e 116 210
e 116 212
e 116 216
e 116 217
e 116 219
e 116 220
e 116 221
e 116 223
e 116 226
e 116 229
e 116 231
e 116 233
e 116 235
e 116 236
e 116 237
e 116 238
e 116 239
e 116 241
e 116 243
e 116 244
e 116 246
e 116 247
e 116 249
e 117 118
e 117 119
e 117 123
e 117 124
e 117 127
e 117 128
e 117 129
e 117 131
e 117 132
e 117 133
e 117 134
e 117 136
e 117 137
e 117 139
e 117 144
e 117 147
e 117 148
e 117 149
e 117 151
e 117 154
e 117 155
e 117 162
e 117 163
e 117 164
e 117 165
e 117 167
e 117 168
e 117 174
e 117 175
e 117 176
e 117 178
e 117 179
e 117 181
e 117 183
e 117 186
e 117 187
e 117 188
e 117 189
e 117 191
e 117 192
e 117 193
e 117 195
e 117 196
e 117 197
e 117 200
e 117 201
e 117 204
e 117 206
e 117 207
e 117 209
e 117 210
e 117 211
e 117 212
e 117 214
e 117 215
e 117 216
e 117 217
e 117 218
e 117 219
e 117 220
e 117 224
e 117 226
e 117 227
e 117 230
e 117 231
e 117 233
e 117 236
e 117 237
e 117 239
e 117 242
e 117 244
e 117 247
e 117 248
e 117 250
e 118 122
e 118 123
e 118 124
e 118 126
e 118 127
e 118 129
e 118 132
e 118 136
e 118 137
e 118 139
e 118 140
e 118 141
e 118 143
e 118 147
e 118 149
e 118 152
e 118 154
e 118 157
e 118 158
e 118 162
e 118 163
e 118 165
e 118 166
e 118 167
e 118 168
e 118 169
e 118 170
e 118 173
e 118 176
e 118 178
e 118 179
e 118 184
e 118 185
e 118 192
e 118 195
e 118 198
e 118 199
e 118 200
e 118 207
e 118 208
e 118 210
e 118 211
e 118 212
e 118 213
e 118 214
e 118 218
e 118 219
e 118 224
e 118 226
e 118 228
e 118 229
e 118 231
e 118 233
e 118 234
e 118 236
e 118 238
e 118 239
e 118 241
e 118 246
e 118 249
e 118 250
e 119 120
e 119 121
e 119 124
e 119 126
e 119 127
e 119 131
e 119 132
e 119 133
e 119 134
e 119 135
e 119 137
e 119 143
e 119 144
e 119 147
e 119 148
e 119 150
e 119 151
e 119 152
e 119 155
e 119 156
e 119 161
e 119 162
e 119 167
e 119 168
e 119 170
e 119 171
e 119 172
e 119 175
e 119 178
e 119 179
e 119 180
e 119 183
e 119 187
e 119 188
e 119 191
e 119 192
e 119 193
e 119 194
e 119 196
e 119 197
e 119 198
e 119 200
e 119 202
e 119 204
e 119 207
e 119 211
e 119 212
e 119 214
e 119 216
e 119 217
e 119 218
e 119 219
e 119 221
e 119 222
e 119 227
e 119 232
e 119 234
e 119 235
e 119 236
e 119 239
e 119 240
e 119 241
e 119 242
e 119 245
e 119 246
e 119 247
e 119 248
e 119 249
e 119 250
e 120 121
e 120 122
e 120 123
e 120 125
e 120 127
e 120 131
e 120 132
e 120 133
e 120 136
e 120 137
e 120 139
e 120 140
e 120 142
e 120 147
e 120 149
e 120 152
e 120 154
e 120 157
e 120 159
e 120 162
e 120 163
e 120 164
e 120 166
e 120 167
e 120 169
e 120 171
e 120 174
e 120 176
e 120 177
e 120 179
e 120 181
e 120 183
e 120 185
e 120 187
e 120 190
e 120 191
e 120 192
e 120 193
e 120 194
e 120 196
e 120 197
e 120 198
e 120 199
e 120 200
e 120 201
e 120 202
e 120 203
e 120 204
e 120 205
e 120 207
e 120 210
e 120 211
e 120 212
e 120 213
e 120 214
e 120 215
e 120 216
e 120 217
e 120 219
e 120 221
e 120 222
e 120 223
e 120 226
e 120 230
e 120 231
e 120 232
e 120 234
e 120 235
e 120 236
e 120 237
e 120 240
e 120 246
e 120 247
e 120 248
e 120 250
e 121 122
e 121 124
e 121 125
e 121 126
e 121 129
e 121 134
e 121 135
e 121 136
e 121 137
e 121 140
e 121 141
e 121 145
e 121 150
e 121 153
e 121 154
e 121 155
e 121 156
e 121 157
e 121 159
e 121 160
e 121 161
e 121 164
e 121 166
e 121 167
e 121 169
e 121 171
e 121 172
e 121 173
e 121 175
e 121 177
e 121 178
e 121 179
e 121 180
e 121 183
e 121 184
e 121 185
e 121 187
e 121 189
e 121 191
e 121 194
e 121 197
e 121 198
e 121 199
e 121 203
e 121 204
e 121 205
e 121 206
e 121 207
e 121 208
e 121 211
e 121 212
e 121 215
e 121 216
e 121 217
e 121 218
e 121 219
e 121 222
e 121 224
e 121 225
e 121 226
e 121 227
e 121 229
e 121 231
e 121 232
e 121 234
e 121 235
e 121 236
e 121 242
e 121 244
e 121 249
e 122 123
e 122 124
e 122 125
e 122 126
e 122 127
e 122 128
e 122 132
e 122 133
e 122 134
e 122 136
e 122 139
e 122 140
e 122 143
e 122 145
e 122 146
e 122 147
e 122 149
e 122 150
e 122 155
e 122 158
e 122 159
e 122 160
e 122 162
e 122 163
e 122 164
e 122 166
e 122 169
e 122 171
e 122 172
e 122 173
e 122 174
e 122 176
e 122 177
e 122 178
e 122 179
e 122 180
e 122 183
e 122 184
e 122 186
e 122 187
e 122 188
e 122 189
e 122 190
e 122 191
e 122 192
e 122 193
e 122 194
e 122 196
e 122 198
e 122 205
e 122 208
e 122 209
e 122 212
e 122 219
e 122 220
e 122 221
e 122 222
e 122 223
e 122 224
e 122 225
e 122 226
e 122 229
e 122 232
e 122 234
e 122 237
e 122 240
e 122 242
e 122 243
e 122 246
e 122 248
e 123 124
e 123 127
e 123 128
e 123 131
e 123 133
e 123 134
e 123 135
e 123 139
e 123 140
e 123 141
e 123 151
e 123 152
e 123 160
e 123 161
e 123 166
e 123 169
e 123 170
e 123 172
e 123 173
e 123 176
e 123 177
e 123 179
e 123 182
e 123 184
e 123 186
e 123 188
e 123 189
e 123 191
e 123 193
e 123 194
e 123 196
e 123 197
e 123 198
e 123 199
e 123 200
e 123 203
e 123 206
e 123 208
e 123 209
e 123 211
e 123 212
e 123 214
e 123 216
e 123 225
e 123 228
e 123 229
e 123 230
e 123 231
e 123 232
e 123 235
e 123 236
e 123 237
e 123 241
e 123 242
e 123 243
e 123 245
e 123 246
e 123 249
e 123 250
e 124 125
e 124 126
e 124 128
e 124 129
e 124 131
e 124 132
e 124 135
e 124 136
e 124 140
e 124 144
e 124 148
e 124 150
e 124 152
e 124 154
e 124 156
e 124 159
e 124 165
e 124 166
e 124 168
e 124 170
e 124 171
e 124 172
e 124 175
e 124 177
e 124 181
e 124 183
e 124 186
e 124 187
e 124 189
e 124 190
e 124 193
e 124 195
e 124 196
e 124 197
e 124 199
e 124 200
e 124 202
e 124 203
e 124 204
e 124 206
e 124 207
e 124 213
e 124 214
e 124 215
e 124 217
e 124 218
e 124 219
e 124 221
e 124 222
e 124 223
e 124 226
e 124 229
e 124 230
e 124 231
e 124 233
e 124 234
e 124 235
e 124 237
e 124 240
e 124 243
e 124 247
e 124 248
e 125 127
e 125 128
e 125 129
e 125 131
e 125 133
e 125 135
e 125 138
e 125 140
e 125 142
e 125 147
e 125 148
e 125 153
e 125 154
e 125 157
e 125 158
e 125 164
e 125 165
e 125 168
e 125 173
e 125 177
e 125 178
e 125 182
e 125 183
e 125 184
e 125 186
e 125 187
e 125 188
e 125 190
e 125 191
e 125 192
e 125 193
e 125 194
e 125 195
e 125 197
e 125 203
e 125 205
e 125 207
e 125 209
e 125 210
e 125 211
e 125 212
e 125 215
e 125 217
e 125 218
e 125 220
e 125 221
e 125 222
e 125 225
e 125 226
e 125 228
e 125 230
e 125 231
e 125 234
e 125 237
e 125 240
e 125 243
e 125 246
e 125 247
e 125 248
e 125 250
e 126 128
e 126 129
e 126 131
e 126 133
e 126 136
e 126 137
e 126 138
e 126 141
e 126 142
e 126 145
e 126 146
e 126 147
e 126 148
e 126 149
e 126 153
e 126 154
e 126 159
e 126 160
e 126 161
e 126 162
e 126 166
e 126 167
e 126 169
e 126 170
e 126 175
e 126 177
e 126 182
e 126 185
e 126 187
e 126 197
e 126 198
e 126 199
e 126 202
e 126 204
e 126 205
e 126 210
e 126 211
e 126 214
e 126 216
e 126 217
e 126 222
e 126 226
e 126 229
e 126 232
e 126 233
e 126 234
e 126 236
e 126 238
e 126 239
e 126 240
e 126 242
e 126 243
e 126 245
e 126 247
e 127 130
e 127 131
e 127 134
e 127 136
e 127 139
e 127 140
e 127 141
e 127 143
e 127 144
e 127 145
e 127 148
e 127 149
e 127 150
e 127 152
e 127 155
e 127 157
e 127 158
e 127 161
e 127 162
e 127 163
e 127 164
e 127 168
e 127 169
e 127 171
e 127 173
e 127 175
e 127 176
e 127 177
e 127 178
e 127 179
e 127 181
e 127 183
e 127 185
e 127 186
e 127 188
e 127 190
e 127 193
e 127 194
e 127 196
e 127 197
e 127 198
e 127 199
e 127 204
e 127 205
e 127 208
e 127 211
e 127 212
e 127 214
e 127 215
e 127 217
e 127 222
e 127 223
e 127 226
e 127 227
e 127 228
e 127 229
e 127 231
e 127 234
e 127 235
e 127 239
e 127 240
e 127 241
e 127 242
e 127 243
e 127 246
e 127 247
e 127 248
e 127 249
e 127 250
e 128 130
e 128 132
e 128 134
e 128 136
e 128 139
e 128 140
e 128 141
e 128 142
e 128 143
e 128 145
e 128 150
e 128 151
e 128 152
e 128 154
e 128 155
e 128 158
e 128 159
e 128 160
e 128 162
e 128 163
e 128 164
e 128 165
e 128 166
e 128 169
e 128 171
e 128 173
e 128 175
e 128 181
e 128 182
e 128 183
e 128 186
e 128 188
e 128 190
e 128 191
e 128 192
e 128 194
e 128 196
e 128 199
e 128 200
e 128 202
e 128 205
e 128 206
e 128 209
e 128 211
e 128 216
e 128 217
e 128 218
e 128 219
e 128 220
e 128 222
e 128 223
e 128 225
e 128 227
e 128 228
e 128 229
e 128 233
e 128 236
e 128 237
e 128 239
e 128 240
e 128 244
e 128 246
e 128 247
e 128 249
e 129 130
e 129 134
e 129 136
e 129 137
e 129 139
e 129 141
e 129 142
e 129 144
e 129 146
e 129 147
e 129 148
e 129 149
e 129 150
e 129 154
e 129 156
e 129 159
e 129 160
e 129 166
e 129 167
e 129 168
e 129 169
e 129 171
e 129 172
e 129 176
e 129 177
e 129 179
e 129 180
e 129 181
e 129 185
e 129 186
e 129 187
e 129 189
e 129 190
e 129 193
e 129 195
e 129 198
e 129 199
e 129 200
e 129 202
e 129 208
e 129 212
e 129 213
e 129 215
e 129 217
e 129 218
e 129 219
e 129 220
e 129 225
e 129 226
e 129 230
e 129 231
e 129 232
e 129 240
e 129 244
e 129 247
e 129 248
e 129 249
e 130 133
e 130 134
e 130 135
e 130 137
e 130 142
e 130 143
e 130 147
e 130 150
e 130 151
e 130 152
e 130 153
e 130 154
e 130 155
e 130 160
e 130 162
e 130 163
e 130 164
e 130 165
e 130 168
e 130 169
e 130 172
e 130 174
e 130 176
e 130 177
e 130 179
e 130 182
e 130 184
e 130 187
e 130 191
e 130 192
e 130 193
e 130 195
e 130 197
e 130 198
e 130 200
e 130 201
e 130 203
e 130 204
e 130 206
e 130 207
e 130 208
e 130 210
e 130 213
e 130 214
e 130 216
e 130 218
e 130 219
e 130 220
e 130 226
e 130 227
e 130 228
e 130 229
e 130 230
e 130 234
e 130 235
e 130 236
e 130 237
e 130 238
e 130 241
e 130 242
e 130 243
e 130 244
e 130 245
e 130 247
e 131 133
e 131 135
e 131 136
e 131 139
e 131 141
e 131 142
e 131 146
e 131 147
e 131 149
e 131 150
e 131 153
e 131 155
e 131 158
e 131 159
e 131 162
e 131 163
e 131 168
e 131 170
e 131 173
e 131 174
e 131 175
e 131 177
e 131 178
e 131 184
e 131 185
e 131 188
e 131 190
e 131 191
e 131 192
e 131 195
e 131 197
e 131 199
e 131 201
e 131 202
e 131 204
e 131 206
e 131 207
e 131 210
e 131 212
e 131 215
e 131 219
e 131 222
e 131 224
e 131 225
e 131 226
e 131 227
e 131 228
e 131 230
e 131 231
e 131 237
e 131 238
e 131 239
e 131 241
e 131 243
e 131 246
e 131 247
e 132 135
e 132 137
e 132 142
e 132 143
e 132 144
e 132 146
e 132 147
e 132 149
e 132 150
e 132 156
e 132 158
e 132 159
e 132 160
e 132 161
e 132 162
e 132 165
e 132 166
e 132 168
e 132 169
e 132 173
e 132 174
e 132 175
e 132 177
e 132 178
e 132 179
e 132 183
e 132 184
e 132 187
e 132 188
e 132 190
e 132 191
e 132 194
e 132 199
e 132 200
e 132 201
e 132 202
e 132 205
e 132 207
e 132 209
e 132 211
e 132 212
e 132 213
e 132 216
e 132 218
e 132 219
e 132 222
e 132 223
e 132 224
e 132 228
e 132 229
e 132 231
e 132 237
e 132 239
e 132 243
e 132 244
e 132 247
e 132 249
e 133 137
e 133 142
e 133 145
e 133 146
e 133 148
e 133 149
e 133 150
e 133 152
e 133 153
e 133 154
e 133 155
e 133 156
e 133 157
e 133 159
e 133 160
e 133 161
e 133 163
e 133 165
e 133 166
e 133 169
e 133 173
e 133 176
e 133 177
e 133 181
e 133 182
e 133 183
e 133 185
e 133 186
e 133 191
e 133 193
e 133 196
e 133 197
e 133 198
e 133 200
e 133 201
e 133 202
e 133 203
e 133 205
e 133 206
e 133 207
e 133 208
e 133 209
e 133 211
e 133 215
e 133 216
e 133 217
e 133 220
e 133 221
e 133 222
e 133 225
e 133 228
e 133 230
e 133 231
e 133 232
e 133 233
e 133 234
e 133 241
e 133 243
e 133 244
e 133 245
e 133 246
e 133 248
e 133 249
e 134 137
e 134 138
e 134 141
e 134 142
e 134 143
e 134 144
e 134 146
e 134 147
e 134 148
e 134 155
e 134 157
e 134 158
e 134 161
e 134 163
e 134 164
e 134 168
e 134 173
e 134 175
e 134 180
e 134 181
e 134 182
e 134 184
e 134 185
e 134 186
e 134 188
e 134 189
e 134 191
e 134 192
e 134 193
e 134 196
e 134 197
e 134 199
e 134 201
e 134 204
e 134 206
e 134 209
e 134 210
e 134 211
e 134 214
e 134 215
e 134 216
e 134 217
e 134 218
e 134 219
e 134 221
e 134 226
e 134 227
e 134 228
e 134 229
e 134 230
e 134 231
e 134 233
e 134 234
e 134 237
e 134 239
e 134 240
e 134 242
e 134 243
e 134 244
e 134 248
e 134 249
e 135 137
e 135 138
e 135 139
e 135 140
e 135 142
e 135 144
e 135 146
e 135 147
e 135 149
e 135 152
e 135 154
e 135 155
e 135 157
e 135 158
e 135 160
e 135 163
e 135 166
e 135 167
e 135 168
e 135 169
e 135 171
e 135 172
e 135 173
e 135 176
e 135 179
e 135 180
e 135 181
e 135 182
e 135 185
e 135 190
e 135 193
e 135 195
e 135 196
e 135 199
e 135 202
e 135 204
e 135 206
e 135 207
e 135 208
e 135 210
e 135 211
e 135 213
e 135 214
e 135 216
e 135 220
e 135 222
e 135 225
e 135 228
e 135 229
e 135 230
e 135 232
e 135 236
e 135 239
e 135 243
e 135 248
e 135 249
e 135 250
e 136 138
e 136 143
e 136 144
e 136 146
e 136 154
e 136 155
e 136 158
e 136 163
e 136 165
e 136 166
e 136 167
e 136 169
e 136 170
e 136 174
e 136 175
e 136 178
e 136 179
e 136 180
e 136 182
e 136 189
e 136 190
e 136 193
e 136 197
e 136 198
e 136 199
e 136 201
e 136 203
e 136 204
e 136 206
e 136 207
e 136 210
e 136 211
e 136 212
e 136 214
e 136 215
e 136 217
e 136 220
e 136 222
e 136 225
e 136 226
e 136 227
e 136 231
e 136 232
e 136 233
e 136 235
e 136 236
e 136 239
e 136 241
e 136 244
e 136 249
e 136 250
e 137 138
e 137 139
e 137 141
e 137 144
e 137 147
e 137 148
e 137 150
e 137 151
e 137 152
e 137 156
e 137 161
e 137 162
e 137 163
e 137 164
e 137 165
e 137 166
e 137 167
e 137 168
e 137 169
e 137 170
e 137 173
e 137 174
e 137 175
e 137 176
e 137 177
e 137 178
e 137 179
e 137 183
e 137 184
e 137 185
e 137 191
e 137 192
e 137 193
e 137 194
e 137 195
e 137 196
e 137 197
e 137 198
e 137 199
e 137 200
e 137 203
e 137 204
e 137 205
e 137 208
e 137 212
e 137 214
e 137 216
e 137 220
e 137 222
e 137 223
e 137 226
e 137 227
e 137 228
e 137 230
e 137 231
e 137 232
e 137 233
e 137 237
e 137 239
e 137 240
e 137 241
e 137 242
e 137 243
e 137 247
e 137 248
e 138 141
e 138 142
e 138 147
e 138 149
e 138 150
e 138 152
e 138 153
e 138 154
e 138 155
e 138 157
e 138 159
e 138 160
e 138 162
e 138 163
e 138 164
e 138 168
e 138 169
e 138 170
e 138 171
e 138 175
e 138 177
e 138 178
e 138 180
e 138 182
e 138 183
e 138 184
e 138 189
e 138 190
e 138 191
e 138 193
e 138 196
e 138 200
e 138 201
e 138 202
e 138 203
e 138 204
e 138 206
e 138 209
e 138 212
e 138 213
e 138 214
e 138 215
e 138 217
e 138 220
e 138 222
e 138 224
e 138 225
e 138 227
e 138 228
e 138 229
e 138 230
e 138 231
e 138 233
e 138 235
e 138 237
e 138 239
e 138 240
e 138 242
e 138 243
e 138 246
e 138 247
e 138 249
e 139 140
e 139 141
e 139 143
e 139 147
e 139 148
e 139 149
e 139 151
e 139 153
e 139 154
e 139 156
e 139 159
e 139 161
e 139 162
e 139 164
e 139 167
e 139 169
e 139 170
e 139 171
e 139 173
e 139 180
e 139 182
e 139 183
e 139 187
e 139 189
e 139 194
e 139 195
e 139 197
e 139 200
e 139 204
e 139 205
e 139 207
e 139 208
e 139 210
e 139 214
e 139 217
e 139 218
e 139 219
e 139 223
e 139 224
e 139 228
e 139 231
e 139 232
e 139 234
e 139 237
e 139 239
e 139 242
e 139 244
e 139 247
e 139 249
e 139 250
e 140 141
e 140 142
e 140 143
e 140 145
e 140 148
e 140 150
e 140 155
e 140 156
e 140 157
e 140 158
e 140 160
e 140 162
e 140 163
e 140 165
e 140 166
e 140 167
e 140 169
e 140 170
e 140 173
e 140 176
e 140 177
e 140 179
e 140 180
e 140 182
e 140 184
e 140 185
e 140 186
e 140 187
e 140 188
e 140 189
e 140 190
e 140 193
e 140 197
e 140 199
e 140 200
e 140 202
e 140 203
e 140 204
e 140 207
e 140 208
e 140 209
e 140 214
e 140 215
e 140 216
e 140 217
e 140 225
e 140 229
e 140 237
e 140 239
e 140 241
e 140 243
e 140 245
e 140 246
e 140 249
e 140 250
e 141 142
e 141 147
e 141 148
e 141 149
e 141 151
e 141 152
e 141 153
e 141 154
e 141 155
e 141 156
e 141 163
e 141 166
e 141 167
e 141 169
e 141 173
e 141 177
e 141 178
e 141 183
e 141 185
e 141 186
e 141 187
e 141 190
e 141 191
e 141 192
e 141 195
e 141 196
e 141 198
e 141 199
e 141 201
e 141 202
e 141 203
e 141 204
e 141 205
e 141 207
e 141 208
e 141 209
e 141 217
e 141 219
e 141 225
e 141 227
e 141 229
e 141 231
e 141 232
e 141 233
e 141 234
e 141 235
e 141 236
e 141 238
e 141 240
e 141 241
e 141 250
e 142 143
e 142 145
e 142 148
e 142 149
e 142 150
e 142 152
e 142 153
e 142 154
e 142 155
e 142 157
e 142 158
e 142 159
e 142 162
e 142 163
e 142 164
e 142 167
e 142 168
e 142 169
e 142 171
e 142 172
e 142 175
e 142 177
e 142 180
e 142 185
e 142 186
e 142 187
e 142 189
e 142 190
e 142 191
e 142 194
e 142 195
e 142 196
e 142 197
e 142 200
e 142 204
e 142 207
e 142 209
e 142 210
e 142 212
e 142 214
e 142 216
e 142 217
e 142 219
e 142 220
e 142 221
e 142 222
e 142 224
e 142 229
e 142 230
e 142 231
e 142 232
e 142 233
e 142 234
e 142 236
e 142 240
e 142 242
e 142 243
e 142 246
e 142 248
e 143 144
e 143 145
e 143 146
e 143 147
e 143 148
e 143 152
e 143 155
e 143 156
e 143 160
e 143 161
e 143 162
e 143 163
e 143 164
e 143 165
e 143 167
e 143 169
e 143 170
e 143 171
e 143 172
e 143 174
e 143 175
e 143 176
e 143 177
e 143 180
e 143 181
e 143 182
e 143 183
e 143 184
e 143 185
e 143 187
e 143 188
e 143 189
e 143 191
e 143 192
e 143 193
e 143 196
e 143 199
e 143 201
e 143 205
e 143 206
e 143 207
e 143 208
e 143 210
e 143 212
e 143 213
e 143 215
e 143 216
e 143 217
e 143 220
e 143 222
e 143 224
e 143 226
e 143 228
e 143 229
e 143 230
e 143 232
e 143 234
e 143 237
e 143 240
e 143 244
e 144 145
e 144 146
e 144 147
e 144 148
e 144 149
e 144 150
e 144 151
e 144 153
e 144 154
e 144 155
e 144 159
e 144 162
e 144 163
e 144 165
e 144 166
e 144 167
e 144 168
e 144 170
e 144 173
e 144 175
e 144 177
e 144 178
e 144 179
e 144 182
e 144 186
e 144 189
e 144 190
e 144 194
e 144 195
e 144 196
e 144 198
e 144 199
e 144 204
e 144 207
e 144 208
e 144 209
e 144 210
e 144 212
e 144 216
e 144 217
e 144 218
e 144 220
e 144 224
e 144 229
e 144 230
e 144 231
e 144 232
e 144 235
e 144 236
e 144 237
e 144 239
e 144 241
e 144 242
e 144 246
e 145 151
e 145 152
e 145 153
e 145 155
e 145 156
e 145 157
e 145 158
e 145 160
e 145 163
e 145 165
e 145 167
e 145 171
e 145 173
e 145 178
e 145 187
e 145 188
e 145 189
e 145 191
e 145 193
e 145 194
e 145 195
e 145 202
e 145 203
e 145 204
e 145 207
e 145 209
e 145 211
e 145 212
e 145 213
e 145 218
e 145 220
e 145 222
e 145 223
e 145 224
e 145 225
e 145 228
e 145 229
e 145 230
e 145 231
e 145 232
e 145 234
e 145 239
e 145 241
e 145 242
e 145 243
e 145 248
e 145 250
e 146 148
e 146 149
e 146 150
e 146 154
e 146 155
e 146 159
e 146 160
e 146 162
e 146 164
e 146 165
e 146 166
e 146 167
e 146 171
e 146 172
e 146 175
e 146 182
e 146 183
e 146 184
e 146 185
e 146 187
e 146 188
e 146 189
e 146 191
e 146 194
e 146 195
e 146 196
e 146 197
e 146 199
e 146 201
e 146 205
e 146 206
e 146 209
e 146 213
e 146 214
e 146 215
e 146 218
e 146 220
e 146 221
e 146 224
e 146 225
e 146 227
e 146 230
e 146 231
e 146 234
e 146 237
e 146 240
e 146 242
e 146 243
e 146 245
e 146 248
e 146 249
e 147 148
e 147 149
e 147 155
e 147 157
e 147 158
e 147 161
e 147 162
e 147 163
e 147 164
e 147 166
e 147 169
e 147 171
e 147 172
e 147 173
e 147 175
e 147 176
e 147 177
e 147 178
e 147 182
e 147 183
e 147 185
e 147 188
e 147 190
e 147 195
e 147 196
e 147 198
e 147 199
e 147 200
e 147 201
e 147 202
e 147 203
e 147 204
e 147 205
e 147 207
e 147 208
e 147 209
e 147 210
e 147 212
e 147 213
e 147 214
e 147 216
e 147 217
e 147 218
e 147 222
e 147 226
e 147 230
e 147 232
e 147 235
e 147 236
e 147 237
e 147 238
e 147 240
e 147 242
e 147 243
e 147 248
e 147 250
e 148 149
e 148 150
e 148 152
e 148 155
e 148 156
e 148 158
e 148 159
e 148 162
e 148 163
e 148 165
e 148 167
e 148 168
e 148 169
e 148 171
e 148 172
e 148 176
e 148 177
e 148 184
e 148 186
e 148 188
e 148 189
e 148 190
e 148 191
e 148 193
e 148 194
e 148 196
e 148 197
e 148 198
e 148 200
e 148 201
e 148 202
e 148 203
e 148 205
e 148 206
e 148 211
e 148 214
e 148 217
e 148 218
e 148 222
e 148 224
e 148 225
e 148 228
e 148 231
e 148 232
e 148 233
e 148 236
e 148 237
e 148 239
e 148 241
e 148 242
e 148 243
e 148 247
e 148 248
e 149 152
e 149 153
e 149 154
e 149 155
e 149 157
e 149 158
e 149 159
e 149 160
e 149 162
e 149 163
e 149 164
e 149 165
e 149 166
e 149 170
e 149 174
e 149 175
e 149 176
e 149 179
e 149 180
e 149 183
e 149 184
e 149 186
e 149 187
e 149 189
e 149 192
e 149 197
e 149 198
e 149 200
e 149 202
e 149 204
e 149 205
e 149 206
e 149 209
e 149 211
e 149 214
e 149 219
e 149 222
e 149 223
e 149 224
e 149 228
e 149 229
e 149 230
e 149 232
e 149 234
e 149 237
e 149 241
e 149 242
e 149 244
e 149 245
e 149 249
e 150 151
e 150 152
e 150 153
e 150 154
e 150 155
e 150 156
e 150 158
e 150 159
e 150 161
e 150 162
e 150 164
e 150 166
e 150 167
e 150 168
e 150 173
e 150 174
e 150 175
e 150 177
e 150 178
e 150 179
e 150 182
e 150 187
e 150 188
e 150 189
e 150 190
e 150 191
e 150 192
e 150 193
e 150 196
e 150 198
e 150 199
e 150 204
e 150 206
e 150 208
e 150 213
e 150 214
e 150 216
e 150 219
e 150 228
e 150 229
e 150 231
e 150 234
e 150 235
e 150 236
e 150 237
e 150 238
e 150 241
e 150 245
e 150 246
e 150 248
e 151 155
e 151 157
e 151 158
e 151 163
e 151 164
e 151 165
e 151 167
e 151 170
e 151 173
e 151 175
e 151 176
e 151 177
e 151 180
e 151 183
e 151 184
e 151 186
e 151 187
e 151 188
e 151 189
e 151 196
e 151 199
e 151 201
e 151 202
e 151 203
e 151 210
e 151 211
e 151 212
e 151 216
e 151 221
e 151 222
e 151 224
e 151 225
e 151 226
e 151 228
e 151 231
e 151 232
e 151 233
e 151 237
e 151 238
e 151 239
e 151 242
e 151 245
e 151 246
e 151 249
e 151 250
e 152 154
e 152 155
e 152 156
e 152 157
e 152 158
e 152 159
e 152 162
e 152 163
e 152 164
e 152 166
e 152 170
e 152 171
e 152 173
e 152 175
e 152 177
e 152 179
e 152 181
e 152 182
e 152 183
e 152 184
e 152 186
e 152 187
e 152 188
e 152 190
e 152 191
e 152 193
e 152 196
e 152 200
e 152 201
e 152 202
e 152 203
e 152 205
e 152 206
e 152 207
e 152 211
e 152 213
e 152 215
e 152 216
e 152 217
e 152 219
e 152 224
e 152 226
e 152 228
e 152 230
e 152 231
e 152 232
e 152 233
e 152 235
e 152 236
e 152 237
e 152 238
e 152 240
e 152 242
e 152 244
e 152 245
e 152 247
e 152 249
e 153 155
e 153 158
e 153 161
e 153 165
e 153 167
e 153 168
e 153 169
e 153 171
e 153 176
e 153 177
e 153 178
e 153 180
e 153 182
e 153 183
e 153 184
e 153 186
e 153 189
e 153 191
e 153 193
e 153 194
e 153 195
e 153 197
e 153 198
e 153 200
e 153 201
e 153 202
e 153 204
e 153 205
e 153 206
e 153 207
e 153 210
e 153 212
e 153 213
e 153 216
e 153 217
e 153 221
e 153 222
e 153 225
e 153 226
e 153 230
e 153 232
e 153 234
e 153 235
e 153 236
e 153 239
e 153 242
e 153 244
e 153 246
e 153 247
e 153 249
e 154 155
e 154 156
e 154 157
e 154 159
e 154 161
e 154 164
e 154 171
e 154 176
e 154 181
e 154 182
e 154 183
e 154 184
e 154 185
e 154 189
e 154 190
e 154 191
e 154 192
e 154 193
e 154 194
e 154 197
e 154 199
e 154 204
e 154 206
e 154 208
e 154 209
e 154 210
e 154 211
e 154 212
e 154 213
e 154 216
e 154 218
e 154 219
e 154 220
e 154 223
e 154 226
e 154 230
e 154 231
e 154 233
e 154 235
e 154 236
e 154 238
e 154 242
e 154 243
e 154 244
e 154 250
e 155 157
e 155 158
e 155 161
e 155 162
e 155 163
e 155 167
e 155 168
e 155 172
e 155 173
e 155 174
e 155 177
e 155 179
e 155 180
e 155 182
e 155 184
e 155 185
e 155 188
e 155 189
e 155 190
e 155 195
e 155 197
e 155 198
e 155 199
e 155 202
e 155 208
e 155 214
e 155 215
e 155 216
e 155 217
e 155 219
e 155 221
e 155 223
e 155 224
e 155 226
e 155 228
e 155 229
e 155 233
e 155 236
e 155 237
e 155 240
e 155 241
e 155 242
e 155 244
e 155 245
e 155 249
e 156 157
e 156 160
e 156 164
e 156 165
e 156 166
e 156 167
e 156 168
e 156 171
e 156 172
e 156 173
e 156 175
e 156 176
e 156 177
e 156 179
e 156 180
e 156 183
e 156 185
e 156 186
e 156 188
e 156 190
e 156 191
e 156 192
e 156 193
e 156 199
e 156 203
e 156 204
e 156 208
e 156 209
e 156 210
e 156 211
e 156 216
e 156 223
e 156 225
e 156 226
e 156 230
e 156 231
e 156 234
e 156 235
e 156 236
e 156 237
e 156 241
e 156 242
e 156 243
e 156 246
e 156 248
e 156 250
e 157 158
e 157 160
e 157 164
e 157 166
e 157 167
e 157 168
e 157 169
e 157 171
e 157 172
e 157 175
e 157 177
e 157 178
e 157 180
e 157 181
e 157 182
e 157 183
e 157 184
e 157 188
e 157 190
e 157 194
e 157 195
e 157 198
e 157 199
e 157 203
e 157 206
e 157 211
e 157 212
e 157 215
e 157 218
e 157 219
e 157 220
e 157 222
e 157 224
e 157 225
e 157 228
e 157 230
e 157 234
e 157 235
e 157 236
e 157 239
e 157 240
e 157 242
e 157 243
e 157 244
e 157 245
e 157 249
e 157 250
e 158 159
e 158 164
e 158 165
e 158 166
e 158 169
e 158 171
e 158 173
e 158 178
e 158 179
e 158 181
e 158 186
e 158 188
e 158 190
e 158 194
e 158 195
e 158 197
e 158 201
e 158 202
e 158 204
e 158 205
e 158 209
e 158 211
e 158 214
e 158 215
e 158 216
e 158 219
e 158 220
e 158 221
e 158 222
e 158 223
e 158 224
e 158 225
e 158 226
e 158 228
e 158 229
e 158 230
e 158 231
e 158 235
e 158 237
e 158 240
e 158 241
e 158 242
e 158 243
e 158 244
e 158 245
e 158 249
e 158 250
e 159 163
e 159 164
e 159 165
e 159 166
e 159 167
e 159 168
e 159 174
e 159 177
e 159 178
e 159 179
e 159 180
e 159 181
e 159 183
e 159 185
e 159 186
e 159 187
e 159 190
e 159 195
e 159 197
e 159 198
e 159 199
e 159 200
e 159 201
e 159 204
e 159 208
e 159 209
e 159 213
e 159 214
e 159 215
e 159 217
e 159 219
e 159 221
e 159 222
e 159 224
e 159 227
e 159 228
e 159 232
e 159 234
e 159 235
e 159 237
e 159 239
e 159 244
e 159 245
e 159 246
e 159 248
e 159 249
e 160 161
e 160 163
e 160 164
e 160 165
e 160 170
e 160 172
e 160 173
e 160 177
e 160 181
e 160 186
e 160 187
e 160 188
e 160 191
e 160 192
e 160 194
e 160 195
e 160 197
e 160 199
e 160 200
e 160 201
e 160 202
e 160 203
e 160 208
e 160 210
e 160 211
e 160 212
e 160 218
e 160 220
e 160 222
e 160 223
e 160 226
e 160 233
e 160 234
e 160 235
e 160 236
e 160 237
e 160 241
e 160 242
e 160 243
e 160 244
e 160 246
e 160 247
e 160 249
e 160 250
e 161 162
e 161 166
e 161 167
e 161 169
e 161 170
e 161 171
e 161 173
e 161 174
e 161 176
e 161 177
e 161 178
e 161 179
e 161 182
e 161 183
e 161 184
e 161 187
e 161 188
e 161 190
e 161 194
e 161 195
e 161 197
e 161 198
e 161 201
e 161 202
e 161 203
e 161 206
e 161 210
e 161 211
e 161 212
e 161 214
e 161 215
e 161 216
e 161 217
e 161 218
e 161 220
e 161 225
e 161 226
e 161 228
e 161 231
e 161 232
e 161 233
e 161 235
e 161 238
e 161 239
e 161 240
e 161 243
e 161 246
e 161 247
e 161 248
e 162 163
e 162 164
e 162 167
e 162 168
e 162 169
e 162 171
e 162 172
e 162 175
e 162 181
e 162 182
e 162 184
e 162 194
e 162 195
e 162 196
e 162 197
e 162 198
e 162 199
e 162 202
e 162 203
e 162 206
e 162 209
e 162 212
e 162 213
e 162 214
e 162 216
e 162 218
e 162 220
e 162 222
e 162 224
e 162 225
e 162 227
e 162 230
e 162 232
e 162 234
e 162 235
e 162 238
e 162 240
e 162 243
e 162 244
e 162 245
e 162 247
e 162 249
e 163 167
e 163 169
e 163 171
e 163 172
e 163 175
e 163 179
e 163 180
e 163 181
e 163 183
e 163 185
e 163 186
e 163 188
e 163 189
e 163 190
e 163 192
e 163 196
e 163 197
e 163 198
e 163 199
e 163 203
e 163 206
e 163 215
e 163 216
e 163 217
e 163 221
e 163 222
e 163 224
e 163 225
e 163 226
e 163 227
e 163 228
e 163 236
e 163 237
e 163 242
e 163 243
e 163 247
e 163 248
e 163 250
e 164 165
e 164 166
e 164 172
e 164 174
e 164 175
e 164 176
e 164 178
e 164 180
e 164 184
e 164 185
e 164 187
e 164 192
e 164 195
e 164 196
e 164 199
e 164 202
e 164 203
e 164 204
e 164 205
e 164 207
e 164 208
e 164 210
e 164 211
e 164 213
e 164 214
e 164 216
e 164 217
e 164 218
e 164 219
e 164 220
e 164 222
e 164 224
e 164 226
e 164 230
e 164 235
e 164 237
e 164 238
e 164 239
e 164 240
e 164 241
e 164 244
e 164 245
e 164 246
e 164 247
e 164 248
e 164 249
e 164 250
e 165 166
e 165 167
e 165 168
e 165 171
e 165 174
e 165 175
e 165 176
e 165 177
e 165 178
e 165 179
e 165 180
e 165 182
e 165 183
e 165 184
e 165 185
e 165 187
e 165 188
e 165 191
e 165 192
e 165 196
e 165 198
e 165 202
e 165 203
e 165 205
e 165 207
e 165 208
e 165 211
e 165 214
e 165 216
e 165 217
e 165 226
e 165 227
e 165 228
e 165 230
e 165 236
e 165 238
e 165 239
e 165 240
e 165 242
e 165 243
e 165 245
e 165 248
e 165 249
e 165 250
e 166 167
e 166 168
e 166 169
e 166 170
e 166 171
e 166 172
e 166 174
e 166 175
e 166 176
e 166 177
e 166 179
e 166 182
e 166 183
e 166 184
e 166 185
e 166 190
e 166 191
e 166 193
e 166 194
e 166 198
e 166 199
e 166 200
e 166 201
e 166 203
e 166 206
e 166 207
e 166 209
e 166 212
e 166 213
e 166 216
e 166 218
e 166 219
e 166 222
e 166 223
e 166 225
e 166 229
e 166 230
e 166 232
e 166 233
e 166 235
e 166 236
e 166 237
e 166 238
e 166 239
e 166 240
e 166 241
e 166 242
e 166 243
e 166 244
e 166 248
e 167 169
e 167 170
e 167 171
e 167 172
e 167 174
e 167 175
e 167 176
e 167 182
e 167 184
e 167 185
e 167 186
e 167 189
e 167 191
e 167 192
e 167 193
e 167 196
e 167 200
e 167 206
e 167 208
e 167 209
e 167 215
e 167 216
e 167 220
e 167 222
e 167 224
e 167 226
e 167 227
e 167 228
e 167 229
e 167 231
e 167 233
e 167 236
e 167 240
e 167 241
e 167 242
e 167 246
e 167 250
e 168 169
e 168 170
e 168 171
e 168 173
e 168 179
e 168 181
e 168 183
e 168 188
e 168 189
e 168 190
e 168 194
e 168 198
e 168 202
e 168 203
e 168 205
e 168 206
e 168 207
e 168 208
e 168 209
e 168 210
e 168 211
e 168 213
e 168 220
e 168 222
e 168 224
e 168 226
e 168 227
e 168 229
e 168 233
e 168 235
e 168 237
e 168 238
e 168 242
e 168 244
e 168 245
e 168 247
e 168 250
e 169 170
e 169 173
e 169 177
e 169 178
e 169 179
e 169 180
e 169 181
e 169 182
e 169 183
e 169 185
e 169 186
e 169 189
e 169 190
e 169 196
e 169 198
e 169 199
e 169 201
e 169 202
e 169 206
e 169 208
e 169 209
e 169 210
e 169 211
e 169 214
e 169 215
e 169 216
e 169 220
e 169 221
e 169 223
e 169 224
e 169 225
e 169 226
e 169 228
e 169 229
e 169 232
e 169 234
e 169 237
e 169 239
e 169 240
e 169 241
e 169 242
e 169 244
e 169 246
e 169 247
e 169 248
e 169 249
e 169 250
e 170 171
e 170 172
e 170 179
e 170 184
e 170 186
e 170 189
e 170 190
e 170 193
e 170 194
e 170 195
e 170 198
e 170 199
e 170 200
e 170 201
e 170 204
e 170 205
e 170 206
e 170 207
e 170 208
e 170 209
e 170 211
e 170 212
e 170 216
e 170 217
e 170 218
e 170 219
e 170 220
e 170 221
e 170 224
e 170 225
e 170 226
e 170 227
e 170 228
e 170 229
e 170 232
e 170 234
e 170 235
e 170 237
e 170 238
e 170 240
e 170 241
e 170 243
e 170 247
e 170 249
e 170 250
e 171 172
e 171 175
e 171 176
e 171 177
e 171 183
e 171 186
e 171 187
e 171 188
e 171 190
e 171 192
e 171 194
e 171 196
e 171 197
e 171 200
e 171 201
e 171 202
e 171 204
e 171 208
e 171 210
e 171 213
e 171 214
e 171 216
e 171 217
e 171 218
e 171 220
e 171 223
e 171 225
e 171 228
e 171 232
e 171 233
e 171 235
e 171 236
e 171 239
e 171 240
e 171 242
e 171 243
e 171 247
e 171 248
e 172 175
e 172 176
e 172 178
e 172 179
e 172 180
e 172 182
e 172 183
e 172 186
e 172 187
e 172 188
e 172 189
e 172 193
e 172 194
e 172 195
e 172 200
e 172 202
e 172 203
e 172 205
e 172 206
e 172 209
e 172 210
e 172 211
e 172 212
e 172 214
e 172 215
e 172 216
e 172 217
e 172 218
e 172 219
e 172 221
e 172 224
e 172 225
e 172 227
e 172 229
e 172 230
e 172 231
e 172 233
e 172 234
e 172 239
e 172 242
e 172 245
e 172 247
e 172 249
e 173 174
e 173 181
e 173 183
e 173 187
e 173 189
e 173 190
e 173 191
e 173 192
e 173 196
e 173 199
e 173 201
e 173 202
e 173 203
e 173 205
e 173 207
e 173 208
e 173 211
e 173 214
e 173 215
e 173 217
e 173 220
e 173 223
e 173 224
e 173 229
e 173 230
e 173 231
e 173 232
e 173 235
e 173 236
e 173 237
e 173 241
e 173 242
e 173 244
e 173 245
e 173 247
e 173 248
e 173 250
e 174 175
e 174 177
e 174 178
e 174 180
e 174 183
e 174 184
e 174 187
e 174 189
e 174 190
e 174 193
e 174 194
e 174 195
e 174 198
e 174 200
e 174 201
e 174 202
e 174 203
e 174 208
e 174 209
e 174 213
e 174 219
e 174 221
e 174 222
e 174 223
e 174 224
e 174 230
e 174 235
e 174 238
e 174 240
e 174 241
e 174 242
e 174 246
e 174 248
e 174 250
e 175 177
e 175 178
e 175 179
e 175 181
e 175 182
e 175 184
e 175 188
e 175 189
e 175 190
e 175 191
e 175 196
e 175 200
e 175 202
e 175 204
e 175 207
e 175 208
e 175 209
e 175 212
e 175 216
e 175 219
e 175 220
e 175 221
e 175 222
e 175 224
e 175 226
e 175 227
e 175 228
e 175 230
e 175 232
e 175 237
e 175 241
e 175 246
e 175 247
e 175 249
e 175 250
e 176 177
e 176 180
e 176 184
e 176 185
e 176 186
e 176 187
e 176 191
e 176 194
e 176 195
e 176 198
e 176 200
e 176 203
e 176 204
e 176 205
e 176 209
e 176 212
e 176 214
e 176 215
e 176 216
e 176 218
e 176 219
e 176 220
e 176 222
e 176 223
e 176 230
e 176 231
e 176 232
e 176 233
e 176 235
e 176 236
e 176 237
e 176 240
e 176 241
e 176 242
e 176 245
e 176 246
e 176 247
e 176 249
e 176 250
e 177 178
e 177 180
e 177 183
e 177 185
e 177 186
e 177 187
e 177 189
e 177 190
e 177 195
e 177 196
e 177 198
e 177 200
e 177 203
e 177 205
e 177 207
e 177 212
e 177 213
e 177 216
e 177 217
e 177 219
e 177 222
e 177 223
e 177 224
e 177 228
e 177 229
e 177 230
e 177 232
e 177 235
e 177 236
e 177 237
e 177 240
e 177 242
e 177 244
e 177 245
e 177 247
e 177 250
e 178 180
e 178 181
e 178 182
e 178 183
e 178 184
e 178 186
e 178 192
e 178 194
e 178 195
e 178 198
e 178 199
e 178 200
e 178 204
e 178 205
e 178 206
e 178 208
e 178 211
e 178 212
e 178 214
e 178 215
e 178 219
e 178 220
e 178 222
e 178 228
e 178 229
e 178 230
e 178 232
e 178 234
e 178 235
e 178 236
e 178 238
e 178 239
e 178 240
e 178 241
e 178 242
e 178 243
e 178 245
e 178 248
e 178 250
e 179 180
e 179 181
e 179 182
e 179 183
e 179 184
e 179 185
e 179 186
e 179 187
e 179 188
e 179 195
e 179 196
e 179 197
e 179 198
e 179 200
e 179 203
e 179 205
e 179 207
e 179 208
e 179 213
e 179 215
e 179 217
e 179 220
e 179 224
e 179 226
e 179 227
e 179 232
e 179 235
e 179 236
e 179 237
e 179 244
e 179 246
e 179 249
e 180 181
e 180 184
e 180 186
e 180 188
e 180 189
e 180 190
e 180 192
e 180 193
e 180 196
e 180 199
e 180 201
e 180 202
e 180 203
e 180 205
e 180 207
e 180 210
e 180 213
e 180 216
e 180 218
e 180 220
e 180 221
e 180 222
e 180 224
e 180 226
e 180 229
e 180 233
e 180 234
e 180 235
e 180 237
e 180 240
e 180 241
e 180 242
e 180 244
e 180 248
e 180 249
e 180 250
e 181 185
e 181 186
e 181 187
e 181 188
e 181 190
e 181 191
e 181 192
e 181 193
e 181 197
e 181 198
e 181 201
e 181 202
e 181 203
e 181 204
e 181 205
e 181 208
e 181 209
e 181 210
e 181 214
e 181 215
e 181 216
e 181 218
e 181 219
e 181 220
e 181 222
e 181 223
e 181 226
e 181 228
e 181 229
e 181 232
e 181 233
e 181 234
e 181 235
e 181 242
e 181 243
e 181 248
e 181 249
e 181 250
e 182 183
e 182 184
e 182 186
e 182 187
e 182 189
e 182 191
e 182 192
e 182 193
e 182 195
e 182 198
e 182 199
e 182 200
e 182 205
e 182 206
e 182 209
e 182 210
e 182 211
e 182 212
e 182 214
e 182 215
e 182 216
e 182 219
e 182 223
e 182 227
e 182 229
e 182 230
e 182 231
e 182 232
e 182 236
e 182 237
e 182 238
e 182 239
e 182 241
e 182 244
e 182 248
e 182 250
e 183 187
e 183 189
e 183 190
e 183 194
e 183 196
e 183 197
e 183 201
e 183 204
e 183 207
e 183 211
e 183 212
e 183 213
e 183 214
e 183 218
e 183 221
e 183 222
e 183 223
e 183 225
e 183 227
e 183 230
e 183 236
e 183 243
e 183 244
e 183 246
e 183 247
e 183 248
e 183 250
e 184 186
e 184 187
e 184 189
e 184 193
e 184 198
e 184 199
e 184 200
e 184 201
e 184 203
e 184 204
e 184 206
e 184 211
e 184 212
e 184 213
e 184 214
e 184 222
e 184 223
e 184 225
e 184 227
e 184 228
e 184 229
e 184 232
e 184 234
e 184 235
e 184 236
e 184 239
e 184 240
e 184 243
e 184 248
e 184 250
e 185 187
e 185 188
e 185 189
e 185 191
e 185 194
e 185 196
e 185 197
e 185 198
e 185 199
e 185 200
e 185 202
e 185 203
e 185 207
e 185 208
e 185 209
e 185 211
e 185 212
e 185 216
e 185 218
e 185 221
e 185 222
e 185 226
e 185 228
e 185 230
e 185 231
e 185 232
e 185 235
e 185 236
e 185 237
e 185 240
e 185 241
e 185 242
e 185 243
e 185 245
e 185 247
e 185 249
e 185 250
e 186 188
e 186 189
e 186 190
e 186 196
e 186 197
e 186 199
e 186 200
e 186 202
e 186 205
e 186 206
e 186 208
e 186 209
e 186 211
e 186 212
e 186 214
e 186 216
e 186 219
e 186 221
e 186 222
e 186 226
e 186 227
e 186 228
e 186 235
e 186 238
e 186 241
e 186 243
e 186 244
e 186 249
e 187 193
e 187 194
e 187 197
e 187 199
e 187 202
e 187 206
e 187 207
e 187 208
e 187 212
e 187 214
e 187 216
e 187 224
e 187 225
e 187 228
e 187 229
e 187 231
e 187 234
e 187 236
e 187 237
e 187 238
e 187 241
e 187 245
e 187 248
e 188 190
e 188 191
e 188 192
e 188 193
e 188 195
e 188 198
e 188 199
e 188 200
e 188 203
e 188 204
e 188 207
e 188 208
e 188 210
e 188 211
e 188 213
e 188 217
e 188 219
e 188 220
e 188 223
e 188 225
e 188 227
e 188 228
e 188 229
e 188 230
e 188 232
e 188 233
e 188 234
e 188 236
e 188 237
e 188 238
e 188 239
e 188 240
e 188 241
e 188 245
e 188 246
e 188 248
e 188 249
e 189 191
e 189 192
e 189 193
e 189 195
e 189 198
e 189 201
e 189 203
e 189 207
e 189 208
e 189 209
e 189 211
e 189 213
e 189 214
e 189 216
e 189 222
e 189 223
e 189 224
e 189 225
e 189 227
e 189 228
e 189 229
e 189 234
e 189 238
e 189 239
e 189 241
e 189 245
e 189 247
e 189 248
e 189 250
e 190 191
e 190 192
e 190 193
e 190 194
e 190 195
e 190 196
e 190 200
e 190 201
e 190 202
e 190 203
e 190 204
e 190 206
e 190 208
e 190 212
e 190 214
e 190 215
e 190 216
e 190 221
e 190 222
e 190 223
e 190 225
e 190 227
e 190 233
e 190 234
e 190 235
e 190 237
e 190 239
e 190 240
e 190 243
e 190 246
e 190 248
e 190 250
e 191 196
e 191 199
e 191 200
e 191 201
e 191 203
e 191 210
e 191 211
e 191 218
e 191 220
e 191 221
e 191 226
e 191 228
e 191 229
e 191 232
e 191 233
e 191 236
e 191 238
e 191 242
e 191 247
e 191 250
e 192 194
e 192 195
e 192 197
e 192 198
e 192 201
e 192 203
e 192 206
e 192 207
e 192 212
e 192 215
e 192 218
e 192 219
e 192 220
e 192 221
e 192 223
e 192 224
e 192 225
e 192 227
e 192 228
e 192 229
e 192 232
e 192 236
e 192 239
e 192 242
e 192 247
e 192 248
e 192 250
e 193 195
e 193 197
e 193 198
e 193 199
e 193 200
e 193 206
e 193 210
e 193 211
e 193 213
e 193 214
e 193 215
e 193 216
e 193 218
e 193 219
e 193 220
e 193 221
e 193 225
e 193 226
e 193 227
e 193 230
e 193 233
e 193 235
e 193 236
e 193 237
e 193 238
e 193 239
e 193 240
e 193 241
e 193 243
e 193 244
e 193 245
e 193 247
e 193 248
e 193 249
e 193 250
e 194 195
e 194 197
e 194 199
e 194 200
e 194 203
e 194 204
e 194 205
e 194 208
e 194 209
e 194 211
e 194 214
e 194 215
e 194 220
e 194 221
e 194 223
e 194 231
e 194 238
e 194 239
e 194 241
e 194 243
e 194 244
e 194 246
e 194 249
e 194 250
e 195 196
e 195 197
e 195 204
e 195 207
e 195 208
e 195 209
e 195 210
e 195 211
e 195 214
e 195 219
e 195 221
e 195 225
e 195 228
e 195 229
e 195 232
e 195 233
e 195 235
e 195 237
e 195 238
e 195 239
e 195 242
e 195 245
e 195 247
e 195 248
e 196 201
e 196 206
e 196 207
e 196 208
e 196 210
e 196 211
e 196 213
e 196 215
e 196 216
e 196 220
e 196 222
e 196 224
e 196 225
e 196 226
e 196 233
e 196 234
e 196 236
e 196 238
e 196 239
e 196 241
e 196 242
e 196 243
e 196 244
e 196 248
e 197 198
e 197 201
e 197 204
e 197 206
e 197 212
e 197 215
e 197 218
e 197 219
e 197 222
e 197 226
e 197 228
e 197 232
e 197 234
e 197 236
e 197 237
e 197 239
e 197 241
e 197 250
e 198 200
e 198 202
e 198 203
e 198 205
e 198 207
e 198 212
e 198 214
e 198 215
e 198 216
e 198 217
e 198 218
e 198 220
e 198 221
e 198 222
e 198 225
e 198 227
e 198 230
e 198 231
e 198 232
e 198 233
e 198 235
e 198 237
e 198 239
e 198 240
e 198 243
e 198 244
e 198 245
e 198 246
e 198 247
e 199 201
e 199 203
e 199 205
e 199 206
e 199 209
e 199 211
e 199 216
e 199 219
e 199 224
e 199 226
e 199 227
e 199 230
e 199 231
e 199 232
e 199 234
e 199 238
e 199 242
e 199 249
e 200 201
e 200 202
e 200 203
e 200 205
e 200 206
e 200 210
e 200 212
e 200 214
e 200 216
e 200 217
e 200 218
e 200 221
e 200 222
e 200 229
e 200 230
e 200 232
e 200 235
e 200 237
e 200 240
e 200 243
e 200 244
e 200 245
e 200 248
e 201 209
e 201 210
e 201 211
e 201 212
e 201 217
e 201 219
e 201 220
e 201 222
e 201 223
e 201 230
e 201 231
e 201 232
e 201 233
e 201 234
e 201 237
e 201 239
e 201 240
e 201 241
e 201 242
e 201 243
e 201 245
e 202 204
e 202 205
e 202 207
e 202 208
e 202 214
e 202 216
e 202 218
e 202 219
e 202 220
e 202 225
e 202 229
e 202 234
e 202 237
e 202 238
e 202 239
e 202 240
e 202 241
e 202 242
e 202 243
e 202 244
e 202 245
e 202 246
e 202 248
e 202 249
e 203 205
e 203 206
e 203 207
e 203 208
e 203 209
e 203 210
e 203 211
e 203 212
e 203 214
e 203 216
e 203 218
e 203 219
e 203 220
e 203 222
e 203 224
e 203 226
e 203 227
e 203 228
e 203 230
e 203 232
e 203 233
e 203 234
e 203 236
e 203 237
e 203 238
e 203 239
e 203 240
e 203 245
e 203 246
e 203 247
e 203 248
e 203 250
e 204 205
e 204 208
e 204 209
e 204 211
e 204 212
e 204 213
e 204 214
e 204 215
e 204 217
e 204 218
e 204 222
e 204 223
e 204 224
e 204 226
e 204 227
e 204 229
e 204 231
e 204 233
e 204 239
e 204 240
e 204 241
e 204 243
e 204 244
e 204 247
e 204 249
e 204 250
e 205 206
e 205 207
e 205 208
e 205 209
e 205 210
e 205 211
e 205 212
e 205 214
e 205 216
e 205 217
e 205 218
e 205 220
e 205 221
e 205 226
e 205 227
e 205 230
e 205 234
e 205 235
e 205 239
e 205 240
e 205 241
e 205 243
e 205 245
e 205 246
e 205 247
e 205 248
e 205 249
e 205 250
e 206 208
e 206 209
e 206 211
e 206 212
e 206 216
e 206 217
e 206 218
e 206 219
e 206 220
e 206 222
e 206 224
e 206 225
e 206 226
e 206 227
e 206 231
e 206 232
e 206 233
e 206 234
e 206 235
e 206 238
e 206 240
e 206 243
e 206 246
e 206 247
e 206 248
e 206 249
e 206 250
e 207 213
e 207 214
e 207 216
e 207 218
e 207 219
e 207 220
e 207 223
e 207 225
e 207 227
e 207 228
e 207 230
e 207 235
e 207 238
e 207 241
e 207 242
e 207 243
e 207 244
e 207 246
e 207 247
e 207 249
e 207 250
e 208 209
e 208 210
e 208 211
e 208 214
e 208 215
e 208 217
e 208 218
e 208 219
e 208 220
e 208 225
e 208 226
e 208 227
e 208 231
e 208 233
e 208 234
e 208 235
e 208 237
e 208 239
e 208 240
e 208 244
e 208 245
e 208 246
e 208 249
e 208 250
e 209 211
e 209 212
e 209 215
e 209 216
e 209 217
e 209 218
e 209 219
e 209 222
e 209 225
e 209 227
e 209 228
e 209 229
e 209 231
e 209 238
e 209 240
e 209 241
e 209 242
e 209 243
e 209 246
e 209 249
e 209 250
e 210 212
e 210 213
e 210 214
e 210 216
e 210 217
e 210 220
e 210 221
e 210 222
e 210 223
e 210 224
e 210 225
e 210 227
e 210 229
e 210 231
e 210 237
e 210 238
e 210 240
e 210 241
e 210 242
e 210 244
e 210 246
e 211 213
e 211 214
e 211 215
e 211 223
e 211 224
e 211 226
e 211 227
e 211 228
e 211 233
e 211 234
e 211 235
e 211 237
e 211 241
e 211 245
e 211 246
e 212 213
e 212 216
e 212 217
e 212 218
e 212 222
e 212 223
e 212 225
e 212 227
e 212 229
e 212 230
e 212 232
e 212 233
e 212 234
e 212 237
e 212 239
e 212 240
e 212 241
e 212 243
e 212 246
e 212 249
e 213 216
e 213 218
e 213 219
e 213 220
e 213 222
e 213 223
e 213 228
e 213 229
e 213 231
e 213 233
e 213 236
e 213 237
e 213 239
e 213 241
e 213 244
e 214 215
e 214 216
e 214 217
e 214 221
e 214 222
e 214 228
e 214 232
e 214 235
e 214 238
e 214 239
e 214 247
e 214 248
e 214 249
e 214 250
e 215 216
e 215 218
e 215 219
e 215 220
e 215 221
e 215 224
e 215 229
e 215 231
e 215 232
e 215 233
e 215 234
e 215 235
e 215 240
e 215 242
e 215 244
e 215 246
e 215 248
e 216 218
e 216 219
e 216 222
e 216 225
e 216 226
e 216 227
e 216 228
e 216 230
e 216 232
e 216 233
e 216 236
e 216 237
e 216 238
e 216 239
e 216 240
e 216 242
e 216 244
e 216 245
e 216 246
e 217 218
e 217 224
e 217 228
e 217 232
e 217 233
e 217 234
e 217 235
e 217 236
e 217 237
e 217 239
e 217 242
e 217 247
e 217 248
e 218 219
e 218 220
e 218 222
e 218 224
e 218 226
e 218 227
e 218 228
e 218 230
e 218 231
e 218 232
e 218 233
e 218 234
e 218 236
e 218 237
e 218 239
e 218 240
e 218 241
e 218 242
e 218 243
e 218 244
e 218 247
e 218 249
e 219 222
e 219 223
e 219 224
e 219 227
e 219 231
e 219 233
e 219 234
e 219 236
e 219 239
e 219 241
e 219 243
e 219 247
e 219 248
e 220 223
e 220 225
e 220 227
e 220 231
e 220 232
e 220 233
e 220 234
e 220 235
e 220 236
e 220 237
e 220 241
e 220 243
e 220 244
e 220 246
e 220 250
e 221 222
e 221 225
e 221 228
e 221 229
e 221 231
e 221 232
e 221 235
e 221 236
e 221 238
e 221 240
e 221 241
e 221 242
e 221 243
e 221 247
e 221 248
e 221 249
e 221 250
e 222 224
e 222 225
e 222 227
e 222 228
e 222 230
e 222 231
e 222 232
e 222 234
e 222 235
e 222 236
e 222 237
e 222 240
e 222 245
e 222 247
e 222 250
e 223 224
e 223 225
e 223 227
e 223 230
e 223 232
e 223 237
e 223 239
e 223 241
e 223 242
e 223 243
e 224 225
e 224 226
e 224 227
e 224 232
e 224 236
e 224 237
e 224 239
e 224 240
e 224 241
e 224 243
e 224 249
e 224 250
e 225 226
e 225 227
e 225 228
e 225 232
e 225 233
e 225 235
e 225 237
e 225 238
e 225 239
e 225 241
e 225 242
e 225 243
e 225 244
e 225 246
e 225 247
e 225 248
e 225 249
e 225 250
e 226 229
e 226 233
e 226 234
e 226 235
e 226 236
e 226 237
e 226 239
e 226 240
e 226 241
e 226 242
e 226 246
e 226 248
e 226 249
e 227 234
e 227 236
e 227 237
e 227 239
e 227 240
e 227 241
e 227 244
e 227 245
e 227 246
e 227 248
e 227 250
e 228 230
e 228 231
e 228 232
e 228 235
e 228 236
e 228 239
e 228 241
e 228 242
e 228 243
e 228 245
e 228 246
e 228 247
e 228 249
e 228 250
e 229 231
e 229 233
e 229 234
e 229 235
e 229 236
e 229 237
e 229 238
e 229 239
e 229 240
e 229 241
e 229 242
e 229 246
e 229 249
e 229 250
e 230 231
e 230 232
e 230 233
e 230 237
e 230 240
e 230 241
e 230 246
e 230 249
e 231 232
e 231 235
e 231 236
e 231 237
e 231 242
e 231 244
e 231 247
e 231 248
e 232 233
e 232 234
e 232 235
e 232 237
e 232 239
e 232 240
e 232 241
e 232 246
e 232 248
e 232 250
e 233 235
e 233 237
e 233 239
e 233 241
e 233 243
e 233 244
e 233 246
e 233 247
e 233 248
e 233 250
e 234 235
e 234 236
e 234 237
e 234 239
e 234 243
e 234 246
e 234 249
e 235 237
e 235 240
e 235 241
e 235 242
e 235 244
e 235 247
e 235 248
e 235 250
e 236 237
e 236 239
e 236 241
e 236 243
e 236 249
e 237 239
e 237 240
e 237 242
e 237 244
e 237 248
e 237 249
e 237 250
e 238 247
e 238 249
e 238 250
e 239 243
e 239 245
e 239 247
e 239 248
e 240 242
e 240 244
e 240 245
e 240 248
e 241 243
e 241 246
e 241 247
e 241 248
e 242 243
e 242 245
e 242 247
e 242 248
e 243 245
e 243 246
e 243 247
e 243 248
e 243 249
e 243 250
e 244 245
e 244 247
e 244 250
e 245 246
e 245 249
e 246 249
e 247 248
e 247 249
e 248 250
